# vtk DataFile Version 3.0
Cables to test STAP90
ASCII
DATASET UNSTRUCTURED_GRID

POINTS        25   double
0              0              0
1              0              0
2              0              0
0              1              0
1              1              0
2              1              0
0              2              0
1              2              0
2              2              0
0              0              0
0              0              0
0              0              0
0              0              0
0              0              0
0              0              0
0              0              0
0              0              0
0              0              0
0              0              0
0              0              0
0              0              0
0              0              0
0              0              0
0              0              0
0              0              0

CELLS           4          40
4          01        4        3
4          12        5        4
4          34        7        6
4          45        8        7

CELL_TYPES           4
3435973836
3435973836
3435973836
3435973836

POINT_DATA          25
SCALARS load1_x   double  1
LOOKUP_TABLE load1_x
0
4.22231e-07
5.69976e-07
0
4.61785e-07
6.14838e-07
0
4.22231e-07
5.69976e-07
2.43745e-07
5.327e-07
0
2.64282e-07
4.53326e-07
5.66151e-07
6.03797e-07
2.68277e-07
5.76725e-07
0
2.64282e-07
4.53326e-07
5.66151e-07
6.03797e-07
2.43745e-07
5.327e-07
SCALARS load1_y   double  1
LOOKUP_TABLE load1_y
1.62351e-07
9.24066e-08
7.70041e-10
0
9.18998e-22
1.44994e-21
-1.62351e-07
-9.24066e-08
-7.70041e-10
1.36579e-07
4.64375e-08
8.05596e-08
6.97986e-08
4.74733e-08
2.36977e-08
6.02671e-10
5.92261e-22
1.22241e-21
-8.05596e-08
-6.97986e-08
-4.74733e-08
-2.36977e-08
-6.02671e-10
-1.36579e-07
-4.64375e-08
SCALARS load1_z   double  1
LOOKUP_TABLE load1_z
0
0
0
0
0
0
0
0
0
0
0
0
0
0
0
0
0
0
0
0
0
0
0
0
0
SCALARS load1_theta_1   double  1
LOOKUP_TABLE load1_theta_1
0
0
0
0
0
0
0
0
0
0
0
0
0
0
0
0
0
0
0
0
0
0
0
0
0
SCALARS load1_theta_2   double  1
LOOKUP_TABLE load1_theta_2
0
0
0
0
0
0
0
0
0
0
0
0
0
0
0
0
0
0
0
0
0
0
0
0
0
SCALARS load1_theta_3   double  1
LOOKUP_TABLE load1_theta_3
0
0
0
0
0
0
0
0
0
0
0
0
0
0
0
0
0
0
0
0
0
0
0
0
0

CELL_DATA           4
SCALARS load1_Mises   double  1
LOOKUP_TABLE load1__Mises
15.8387
2.91363e+144
