# vtk DataFile Version 3.0
Cables to test STAP90
ASCII
DATASET UNSTRUCTURED_GRID

POINTS         9   double
0            -4.5e-05                   0
              1.9997            -4.5e-05                   0
                   0             2.00005                   0
              1.9997             2.00005                   0
             0.99985            -4.5e-05                   0
              1.9997                   1                   0
             0.99985             2.00005                   0
                   0                   1                   0
             0.99985                   1                   0

               CELLS           1          10
4          01        3        2

CELL_TYPES           1
3435973836

POINT_DATA           9
SCALARS load1_x   double  1
LOOKUP_TABLE load1_x
0
-2e-06
0
-2e-06
-1e-06
-2e-06
-1e-06
0
-1e-06
SCALARS load1_y   double  1
LOOKUP_TABLE load1_y
-3e-07
-3e-07
3e-07
3e-07
-3e-07
1.37643e-21
3e-07
0
3.52022e-22
SCALARS load1_z   double  1
LOOKUP_TABLE load1_z
0
0
0
0
0
0
0
0
0
SCALARS load1_theta_1   double  1
LOOKUP_TABLE load1_theta_1
0
0
0
0
0
0
0
0
0
SCALARS load1_theta_2   double  1
LOOKUP_TABLE load1_theta_2
0
0
0
0
0
0
0
0
0
SCALARS load1_theta_3   double  1
LOOKUP_TABLE load1_theta_3
0
0
0
0
0
0
0
0
0

CELL_DATA           1
SCALARS load1_Mises   double  1
LOOKUP_TABLE load1__Mises
30
