# vtk DataFile Version 3.0
Cables to test STAP90
ASCII
DATASET UNSTRUCTURED_GRID

POINTS        25   double
0              0              0
1              0              0
2              0              0
0              1              0
1              1              0
2              1              0
0              2              0
1              2              0
2              2              0
0              0              0
0              0              0
0              0              0
0              0              0
0              0              0
0              0              0
0              0              0
0              0              0
0              0              0
0              0              0
0              0              0
0              0              0
0              0              0
0              0              0
0              0              0
0              0              0

CELLS           4          40
4          01        4        3
4          12        5        4
4          34        7        6
4          45        8        7

CELL_TYPES           4
3435973836
3435973836
3435973836
3435973836

POINT_DATA          25
SCALARS load1_x   double  1
LOOKUP_TABLE load1_x
0
3e-07
6e-07
0
3e-07
6e-07
0
3e-07
6e-07
1.5e-07
4.5e-07
0
1.5e-07
3e-07
4.5e-07
6e-07
1.5e-07
4.5e-07
0
1.5e-07
3e-07
4.5e-07
6e-07
1.5e-07
4.5e-07
SCALARS load1_y   double  1
LOOKUP_TABLE load1_y
9e-08
9e-08
9e-08
0
3.11847e-22
2.05826e-22
-9e-08
-9e-08
-9e-08
9e-08
9e-08
4.5e-08
4.5e-08
4.5e-08
4.5e-08
4.5e-08
2.74624e-22
2.90297e-22
-4.5e-08
-4.5e-08
-4.5e-08
-4.5e-08
-4.5e-08
-9e-08
-9e-08
SCALARS load1_z   double  1
LOOKUP_TABLE load1_z
0
0
0
0
0
0
0
0
0
0
0
0
0
0
0
0
0
0
0
0
0
0
0
0
0
SCALARS load1_theta_1   double  1
LOOKUP_TABLE load1_theta_1
0
0
0
0
0
0
0
0
0
0
0
0
0
0
0
0
0
0
0
0
0
0
0
0
0
SCALARS load1_theta_2   double  1
LOOKUP_TABLE load1_theta_2
0
0
0
0
0
0
0
0
0
0
0
0
0
0
0
0
0
0
0
0
0
0
0
0
0
SCALARS load1_theta_3   double  1
LOOKUP_TABLE load1_theta_3
0
0
0
0
0
0
0
0
0
0
0
0
0
0
0
0
0
0
0
0
0
0
0
0
0

CELL_DATA           4
SCALARS load1_Mises   double  1
LOOKUP_TABLE load1__Mises
9
2.81604e+144
