# vtk DataFile Version 3.0
Cables to test STAP90
ASCII
DATASET UNSTRUCTURED_GRID

POINTS        81   double
0                   0                   0
                0.25                   0          -0.0523075
                 0.5                   0           -0.135681
                0.75                   0           -0.199989
                   1                   0           -0.223649
                1.25                   0           -0.199989
                 1.5                   0           -0.135681
                1.75                   0          -0.0523075
                   2                   0                   0
                   0                0.25          -0.0523075
                0.25                0.25           -0.138843
                 0.5                0.25           -0.221581
                0.75                0.25           -0.283058
                   1                0.25           -0.305745
                1.25                0.25           -0.283058
                 1.5                0.25           -0.221581
                1.75                0.25           -0.138843
                   2                0.25          -0.0523075
                   0                 0.5           -0.135681
                0.25                 0.5           -0.221581
                 0.5                 0.5           -0.304583
                0.75                 0.5           -0.367926
                   1                 0.5           -0.391902
                1.25                 0.5           -0.367926
                 1.5                 0.5           -0.304583
                1.75                 0.5           -0.221581
                   2                 0.5           -0.135681
                   0                0.75           -0.199989
                0.25                0.75           -0.283058
                 0.5                0.75           -0.367926
                0.75                0.75           -0.438025
                   1                0.75           -0.467431
                1.25                0.75           -0.438025
                 1.5                0.75           -0.367926
                1.75                0.75           -0.283058
                   2                0.75           -0.199989
                   0                   1           -0.223649
                0.25                   1           -0.305745
                 0.5                   1           -0.391902
                0.75                   1           -0.467431
                   1                   1           -0.506473
                1.25                   1           -0.467431
                 1.5                   1           -0.391902
                1.75                   1           -0.305745
                   2                   1           -0.223649
                   0                1.25           -0.199989
                0.25                1.25           -0.283058
                 0.5                1.25           -0.367926
                0.75                1.25           -0.438025
                   1                1.25           -0.467431
                1.25                1.25           -0.438025
                 1.5                1.25           -0.367926
                1.75                1.25           -0.283058
                   2                1.25           -0.199989
                   0                 1.5           -0.135681
                0.25                 1.5           -0.221581
                 0.5                 1.5           -0.304583
                0.75                 1.5           -0.367926
                   1                 1.5           -0.391902
                1.25                 1.5           -0.367926
                 1.5                 1.5           -0.304583
                1.75                 1.5           -0.221581
                   2                 1.5           -0.135681
                   0                1.75          -0.0523075
                0.25                1.75           -0.138843
                 0.5                1.75           -0.221581
                0.75                1.75           -0.283058
                   1                1.75           -0.305745
                1.25                1.75           -0.283058
                 1.5                1.75           -0.221581
                1.75                1.75           -0.138843
                   2                1.75          -0.0523075
                   0                   2                   0
                0.25                   2          -0.0523075
                 0.5                   2           -0.135681
                0.75                   2           -0.199989
                   1                   2           -0.223649
                1.25                   2           -0.199989
                 1.5                   2           -0.135681
                1.75                   2          -0.0523075
                   2                   2                   0

               CELLS          64         320
4        0        1       10        9
4        1        2       11       10
4        2        3       12       11
4        3        4       13       12
4        4        5       14       13
4        5        6       15       14
4        6        7       16       15
4        7        8       17       16
4        9       10       19       18
4       10       11       20       19
4       11       12       21       20
4       12       13       22       21
4       13       14       23       22
4       14       15       24       23
4       15       16       25       24
4       16       17       26       25
4       18       19       28       27
4       19       20       29       28
4       20       21       30       29
4       21       22       31       30
4       22       23       32       31
4       23       24       33       32
4       24       25       34       33
4       25       26       35       34
4       27       28       37       36
4       28       29       38       37
4       29       30       39       38
4       30       31       40       39
4       31       32       41       40
4       32       33       42       41
4       33       34       43       42
4       34       35       44       43
4       36       37       46       45
4       37       38       47       46
4       38       39       48       47
4       39       40       49       48
4       40       41       50       49
4       41       42       51       50
4       42       43       52       51
4       43       44       53       52
4       45       46       55       54
4       46       47       56       55
4       47       48       57       56
4       48       49       58       57
4       49       50       59       58
4       50       51       60       59
4       51       52       61       60
4       52       53       62       61
4       54       55       64       63
4       55       56       65       64
4       56       57       66       65
4       57       58       67       66
4       58       59       68       67
4       59       60       69       68
4       60       61       70       69
4       61       62       71       70
4       63       64       73       72
4       64       65       74       73
4       65       66       75       74
4       66       67       76       75
4       67       68       77       76
4       68       69       78       77
4       69       70       79       78
4       70       71       80       79

CELL_TYPES          64
7
7
7
7
7
7
7
7
7
7
7
7
7
7
7
7
7
7
7
7
7
7
7
7
7
7
7
7
7
7
7
7
7
7
7
7
7
7
7
7
7
7
7
7
7
7
7
7
7
7
7
7
7
7
7
7
7
7
7
7
7
7
7
7

POINT_DATA          81
SCALARS load1_x   double  1
LOOKUP_TABLE load1_x
0
0
0
0
0
0
0
0
0
0
0
0
0
0
0
0
0
0
0
0
0
0
0
0
0
0
0
0
0
0
0
0
0
0
0
0
0
0
0
0
0
0
0
0
0
0
0
0
0
0
0
0
0
0
0
0
0
0
0
0
0
0
0
0
0
0
0
0
0
0
0
0
0
0
0
0
0
0
0
0
0
SCALARS load1_y   double  1
LOOKUP_TABLE load1_y
0
0
0
0
0
0
0
0
0
0
0
0
0
0
0
0
0
0
0
0
0
0
0
0
0
0
0
0
0
0
0
0
0
0
0
0
0
0
0
0
0
0
0
0
0
0
0
0
0
0
0
0
0
0
0
0
0
0
0
0
0
0
0
0
0
0
0
0
0
0
0
0
0
0
0
0
0
0
0
0
0
SCALARS load1_z   double  1
LOOKUP_TABLE load1_z
0
-0.000348717
-0.00090454
-0.00133326
-0.00149099
-0.00133326
-0.00090454
-0.000348717
0
-0.000348717
-0.000925618
-0.0014772
-0.00188706
-0.0020383
-0.00188706
-0.0014772
-0.000925618
-0.000348717
-0.00090454
-0.0014772
-0.00203056
-0.00245284
-0.00261268
-0.00245284
-0.00203056
-0.0014772
-0.00090454
-0.00133326
-0.00188706
-0.00245284
-0.00292017
-0.00311621
-0.00292017
-0.00245284
-0.00188706
-0.00133326
-0.00149099
-0.0020383
-0.00261268
-0.00311621
-0.00337649
-0.00311621
-0.00261268
-0.0020383
-0.00149099
-0.00133326
-0.00188706
-0.00245284
-0.00292017
-0.00311621
-0.00292017
-0.00245284
-0.00188706
-0.00133326
-0.00090454
-0.0014772
-0.00203056
-0.00245284
-0.00261268
-0.00245284
-0.00203056
-0.0014772
-0.00090454
-0.000348717
-0.000925618
-0.0014772
-0.00188706
-0.0020383
-0.00188706
-0.0014772
-0.000925618
-0.000348717
0
-0.000348717
-0.00090454
-0.00133326
-0.00149099
-0.00133326
-0.00090454
-0.000348717
0
SCALARS load1_theta_1   double  1
LOOKUP_TABLE load1_theta_1
0
-0.00253434
-0.00221037
-0.00209666
-0.00203772
-0.00209666
-0.00221037
-0.00253434
0
-0.00209647
-0.00230605
-0.00229761
-0.00229827
-0.00229628
-0.00229827
-0.00229761
-0.00230605
-0.00209647
-0.00210756
-0.00202116
-0.00204222
-0.00215821
-0.00223513
-0.00215821
-0.00204222
-0.00202116
-0.00210756
-0.00123126
-0.00117963
-0.00123815
-0.00145545
-0.00171612
-0.00145545
-0.00123815
-0.00117963
-0.00123126
-7.91468e-18
8.99888e-18
3.06829e-17
2.82977e-17
2.4552e-17
3.08998e-18
-2.40151e-17
-3.17671e-17
-3.57787e-17
0.00123126
0.00117963
0.00123815
0.00145545
0.00171612
0.00145545
0.00123815
0.00117963
0.00123126
0.00210756
0.00202116
0.00204222
0.00215821
0.00223513
0.00215821
0.00204222
0.00202116
0.00210756
0.00209647
0.00230605
0.00229761
0.00229827
0.00229628
0.00229827
0.00229761
0.00230605
0.00209647
0
0.00253434
0.00221037
0.00209666
0.00203772
0.00209666
0.00221037
0.00253434
0
SCALARS load1_theta_2   double  1
LOOKUP_TABLE load1_theta_2
0
0.00209647
0.00210756
0.00123126
-4.33681e-18
-0.00123126
-0.00210756
-0.00209647
0
0.00253434
0.00230605
0.00202116
0.00117963
-1.21431e-17
-0.00117963
-0.00202116
-0.00230605
-0.00253434
0.00221037
0.00229761
0.00204222
0.00123815
-1.9082e-17
-0.00123815
-0.00204222
-0.00229761
-0.00221037
0.00209666
0.00229827
0.00215821
0.00145545
-1.30104e-17
-0.00145545
-0.00215821
-0.00229827
-0.00209666
0.00203772
0.00229628
0.00223513
0.00171612
-1.73472e-18
-0.00171612
-0.00223513
-0.00229628
-0.00203772
0.00209666
0.00229827
0.00215821
0.00145545
9.54098e-18
-0.00145545
-0.00215821
-0.00229827
-0.00209666
0.00221037
0.00229761
0.00204222
0.00123815
1.73472e-17
-0.00123815
-0.00204222
-0.00229761
-0.00221037
0.00253434
0.00230605
0.00202116
0.00117963
2.51535e-17
-0.00117963
-0.00202116
-0.00230605
-0.00253434
0
0.00209647
0.00210756
0.00123126
1.68593e-17
-0.00123126
-0.00210756
-0.00209647
0
SCALARS load1_theta_3   double  1
LOOKUP_TABLE load1_theta_3
0
0
0
0
0
0
0
0
0
0
0
0
0
0
0
0
0
0
0
0
0
0
0
0
0
0
0
0
0
0
0
0
0
0
0
0
0
0
0
0
0
0
0
0
0
0
0
0
0
0
0
0
0
0
0
0
0
0
0
0
0
0
0
0
0
0
0
0
0
0
0
0
0
0
0
0
0
0
0
0
0

CELL_DATA          64
SCALARS load1_Mises   double  1
LOOKUP_TABLE load1__Mises
1.48271e+06
297144
614926
853795
853795
614926
297144
1.48271e+06
297144
297483
616337
862946
862946
616337
297483
297144
614926
616337
808401
1.08524e+06
1.08524e+06
808401
616337
614926
853795
862946
1.08524e+06
1.67381e+06
1.67381e+06
1.08524e+06
862946
853795
853795
862946
1.08524e+06
1.67381e+06
1.67381e+06
1.08524e+06
862946
853795
614926
616337
808401
1.08524e+06
1.08524e+06
808401
616337
614926
297144
297483
616337
862946
862946
616337
297483
297144
1.48271e+06
297144
614926
853795
853795
614926
297144
1.48271e+06
