# vtk DataFile Version 3.0
Cables to test STAP90
ASCII
DATASET UNSTRUCTURED_GRID

POINTS        25   double
0                   0                   0
                 0.5                   0           -0.103406
                   1                   0           -0.175979
                 1.5                   0           -0.103406
                   2                   0                   0
                   0                 0.5           -0.103406
                 0.5                 0.5           -0.265109
                   1                 0.5           -0.346142
                 1.5                 0.5           -0.265109
                   2                 0.5           -0.103406
                   0                   1           -0.175979
                 0.5                   1           -0.346142
                   1                   1            -0.45888
                 1.5                   1           -0.346142
                   2                   1           -0.175979
                   0                 1.5           -0.103406
                 0.5                 1.5           -0.265109
                   1                 1.5           -0.346142
                 1.5                 1.5           -0.265109
                   2                 1.5           -0.103406
                   0                   2                   0
                 0.5                   2           -0.103406
                   1                   2           -0.175979
                 1.5                   2           -0.103406
                   2                   2                   0

               CELLS          16          80
4        0        1        6        5
4        1        2        7        6
4        2        3        8        7
4        3        4        9        8
4        5        6       11       10
4        6        7       12       11
4        7        8       13       12
4        8        9       14       13
4       10       11       16       15
4       11       12       17       16
4       12       13       18       17
4       13       14       19       18
4       15       16       21       20
4       16       17       22       21
4       17       18       23       22
4       18       19       24       23

CELL_TYPES          16
7
7
7
7
7
7
7
7
7
7
7
7
7
7
7
7

POINT_DATA          25
SCALARS load1_x   double  1
LOOKUP_TABLE load1_x
0
0
0
0
0
0
0
0
0
0
0
0
0
0
0
0
0
0
0
0
0
0
0
0
0
SCALARS load1_y   double  1
LOOKUP_TABLE load1_y
0
0
0
0
0
0
0
0
0
0
0
0
0
0
0
0
0
0
0
0
0
0
0
0
0
SCALARS load1_z   double  1
LOOKUP_TABLE load1_z
0
-0.000689373
-0.0011732
-0.000689373
0
-0.000689373
-0.00176739
-0.00230761
-0.00176739
-0.000689373
-0.0011732
-0.00230761
-0.0030592
-0.00230761
-0.0011732
-0.000689373
-0.00176739
-0.00230761
-0.00176739
-0.000689373
0
-0.000689373
-0.0011732
-0.000689373
0
SCALARS load1_theta_1   double  1
LOOKUP_TABLE load1_theta_1
0
-0.00243738
-0.00206241
-0.00243738
0
-0.00166242
-0.00190073
-0.00224535
-0.00190073
-0.00166242
-1.02999e-18
7.04731e-19
7.31792e-18
3.79471e-18
1.00289e-18
0.00166242
0.00190073
0.00224535
0.00190073
0.00166242
0
0.00243738
0.00206241
0.00243738
0
SCALARS load1_theta_2   double  1
LOOKUP_TABLE load1_theta_2
0
0.00166242
1.0842e-19
-0.00166242
0
0.00243738
0.00190073
1.30104e-18
-0.00190073
-0.00243738
0.00206241
0.00224535
4.33681e-19
-0.00224535
-0.00206241
0.00243738
0.00190073
-1.73472e-18
-0.00190073
-0.00243738
0
0.00166242
-1.0842e-18
-0.00166242
0
SCALARS load1_theta_3   double  1
LOOKUP_TABLE load1_theta_3
0
0
0
0
0
0
0
0
0
0
0
0
0
0
0
0
0
0
0
0
0
0
0
0
0

CELL_DATA          16
SCALARS load1_Mises   double  1
LOOKUP_TABLE load1__Mises
704049
655219
655219
704049
655219
1.12888e+06
1.12888e+06
655219
655219
1.12888e+06
1.12888e+06
655219
704049
655219
655219
704049
