# vtk DataFile Version 3.0
Cables to test STAP90
ASCII
DATASET UNSTRUCTURED_GRID

POINTS       289   double
0                   0                   0
               0.125                   0          -0.0238182
                0.25                   0          -0.0684998
               0.375                   0           -0.117589
                 0.5                   0           -0.164263
               0.625                   0           -0.204436
                0.75                   0           -0.235193
               0.875                   0           -0.254479
                   1                   0           -0.261047
               1.125                   0           -0.254479
                1.25                   0           -0.235193
               1.375                   0           -0.204436
                 1.5                   0           -0.164263
               1.625                   0           -0.117589
                1.75                   0          -0.0684998
               1.875                   0          -0.0238182
                   2                   0                   0
                   0               0.125          -0.0238182
               0.125               0.125          -0.0684064
                0.25               0.125           -0.115613
               0.375               0.125           -0.163689
                 0.5               0.125           -0.208687
               0.625               0.125           -0.247304
                0.75               0.125           -0.276893
               0.875               0.125           -0.295476
                   1               0.125           -0.301812
               1.125               0.125           -0.295476
                1.25               0.125           -0.276893
               1.375               0.125           -0.247304
                 1.5               0.125           -0.208687
               1.625               0.125           -0.163689
                1.75               0.125           -0.115613
               1.875               0.125          -0.0684064
                   2               0.125          -0.0238182
                   0                0.25          -0.0684998
               0.125                0.25           -0.115613
                0.25                0.25           -0.163251
               0.375                0.25             -0.2104
                 0.5                0.25           -0.254224
               0.625                0.25            -0.29187
                0.75                0.25           -0.320817
               0.875                0.25           -0.339062
                   1                0.25           -0.345296
               1.125                0.25           -0.339062
                1.25                0.25           -0.320817
               1.375                0.25            -0.29187
                 1.5                0.25           -0.254224
               1.625                0.25             -0.2104
                1.75                0.25           -0.163251
               1.875                0.25           -0.115613
                   2                0.25          -0.0684998
                   0               0.375           -0.117589
               0.125               0.375           -0.163689
                0.25               0.375             -0.2104
               0.375               0.375           -0.256417
                 0.5               0.375           -0.299368
               0.625               0.375           -0.336553
                0.75               0.375           -0.365392
               0.875               0.375             -0.3837
                   1               0.375            -0.38998
               1.125               0.375             -0.3837
                1.25               0.375           -0.365392
               1.375               0.375           -0.336553
                 1.5               0.375           -0.299368
               1.625               0.375           -0.256417
                1.75               0.375             -0.2104
               1.875               0.375           -0.163689
                   2               0.375           -0.117589
                   0                 0.5           -0.164263
               0.125                 0.5           -0.208687
                0.25                 0.5           -0.254224
               0.375                 0.5           -0.299368
                 0.5                 0.5           -0.341914
               0.625                 0.5           -0.379241
                0.75                 0.5           -0.408609
               0.875                 0.5           -0.427485
                   1                 0.5           -0.434009
               1.125                 0.5           -0.427485
                1.25                 0.5           -0.408609
               1.375                 0.5           -0.379241
                 1.5                 0.5           -0.341914
               1.625                 0.5           -0.299368
                1.75                 0.5           -0.254224
               1.875                 0.5           -0.208687
                   2                 0.5           -0.164263
                   0               0.625           -0.204436
               0.125               0.625           -0.247304
                0.25               0.625            -0.29187
               0.375               0.625           -0.336553
                 0.5               0.625           -0.379241
               0.625               0.625           -0.417368
                0.75               0.625           -0.448019
               0.875               0.625           -0.468135
                   1               0.625           -0.475177
               1.125               0.625           -0.468135
                1.25               0.625           -0.448019
               1.375               0.625           -0.417368
                 1.5               0.625           -0.379241
               1.625               0.625           -0.336553
                1.75               0.625            -0.29187
               1.875               0.625           -0.247304
                   2               0.625           -0.204436
                   0                0.75           -0.235193
               0.125                0.75           -0.276893
                0.25                0.75           -0.320817
               0.375                0.75           -0.365392
                 0.5                0.75           -0.408609
               0.625                0.75           -0.448019
                0.75                0.75           -0.480658
               0.875                0.75           -0.502884
                   1                0.75           -0.510865
               1.125                0.75           -0.502884
                1.25                0.75           -0.480658
               1.375                0.75           -0.448019
                 1.5                0.75           -0.408609
               1.625                0.75           -0.365392
                1.75                0.75           -0.320817
               1.875                0.75           -0.276893
                   2                0.75           -0.235193
                   0               0.875           -0.254479
               0.125               0.875           -0.295476
                0.25               0.875           -0.339062
               0.375               0.875             -0.3837
                 0.5               0.875           -0.427485
               0.625               0.875           -0.468135
                0.75               0.875           -0.502884
               0.875               0.875           -0.528033
                   1               0.875           -0.537817
               1.125               0.875           -0.528033
                1.25               0.875           -0.502884
               1.375               0.875           -0.468135
                 1.5               0.875           -0.427485
               1.625               0.875             -0.3837
                1.75               0.875           -0.339062
               1.875               0.875           -0.295476
                   2               0.875           -0.254479
                   0                   1           -0.261047
               0.125                   1           -0.301812
                0.25                   1           -0.345296
               0.375                   1            -0.38998
                 0.5                   1           -0.434009
               0.625                   1           -0.475177
                0.75                   1           -0.510865
               0.875                   1           -0.537817
                   1                   1           -0.550173
               1.125                   1           -0.537817
                1.25                   1           -0.510865
               1.375                   1           -0.475177
                 1.5                   1           -0.434009
               1.625                   1            -0.38998
                1.75                   1           -0.345296
               1.875                   1           -0.301812
                   2                   1           -0.261047
                   0               1.125           -0.254479
               0.125               1.125           -0.295476
                0.25               1.125           -0.339062
               0.375               1.125             -0.3837
                 0.5               1.125           -0.427485
               0.625               1.125           -0.468135
                0.75               1.125           -0.502884
               0.875               1.125           -0.528033
                   1               1.125           -0.537817
               1.125               1.125           -0.528033
                1.25               1.125           -0.502884
               1.375               1.125           -0.468135
                 1.5               1.125           -0.427485
               1.625               1.125             -0.3837
                1.75               1.125           -0.339062
               1.875               1.125           -0.295476
                   2               1.125           -0.254479
                   0                1.25           -0.235193
               0.125                1.25           -0.276893
                0.25                1.25           -0.320817
               0.375                1.25           -0.365392
                 0.5                1.25           -0.408609
               0.625                1.25           -0.448019
                0.75                1.25           -0.480658
               0.875                1.25           -0.502884
                   1                1.25           -0.510865
               1.125                1.25           -0.502884
                1.25                1.25           -0.480658
               1.375                1.25           -0.448019
                 1.5                1.25           -0.408609
               1.625                1.25           -0.365392
                1.75                1.25           -0.320817
               1.875                1.25           -0.276893
                   2                1.25           -0.235193
                   0               1.375           -0.204436
               0.125               1.375           -0.247304
                0.25               1.375            -0.29187
               0.375               1.375           -0.336553
                 0.5               1.375           -0.379241
               0.625               1.375           -0.417368
                0.75               1.375           -0.448019
               0.875               1.375           -0.468135
                   1               1.375           -0.475177
               1.125               1.375           -0.468135
                1.25               1.375           -0.448019
               1.375               1.375           -0.417368
                 1.5               1.375           -0.379241
               1.625               1.375           -0.336553
                1.75               1.375            -0.29187
               1.875               1.375           -0.247304
                   2               1.375           -0.204436
                   0                 1.5           -0.164263
               0.125                 1.5           -0.208687
                0.25                 1.5           -0.254224
               0.375                 1.5           -0.299368
                 0.5                 1.5           -0.341914
               0.625                 1.5           -0.379241
                0.75                 1.5           -0.408609
               0.875                 1.5           -0.427485
                   1                 1.5           -0.434009
               1.125                 1.5           -0.427485
                1.25                 1.5           -0.408609
               1.375                 1.5           -0.379241
                 1.5                 1.5           -0.341914
               1.625                 1.5           -0.299368
                1.75                 1.5           -0.254224
               1.875                 1.5           -0.208687
                   2                 1.5           -0.164263
                   0               1.625           -0.117589
               0.125               1.625           -0.163689
                0.25               1.625             -0.2104
               0.375               1.625           -0.256417
                 0.5               1.625           -0.299368
               0.625               1.625           -0.336553
                0.75               1.625           -0.365392
               0.875               1.625             -0.3837
                   1               1.625            -0.38998
               1.125               1.625             -0.3837
                1.25               1.625           -0.365392
               1.375               1.625           -0.336553
                 1.5               1.625           -0.299368
               1.625               1.625           -0.256417
                1.75               1.625             -0.2104
               1.875               1.625           -0.163689
                   2               1.625           -0.117589
                   0                1.75          -0.0684998
               0.125                1.75           -0.115613
                0.25                1.75           -0.163251
               0.375                1.75             -0.2104
                 0.5                1.75           -0.254224
               0.625                1.75            -0.29187
                0.75                1.75           -0.320817
               0.875                1.75           -0.339062
                   1                1.75           -0.345296
               1.125                1.75           -0.339062
                1.25                1.75           -0.320817
               1.375                1.75            -0.29187
                 1.5                1.75           -0.254224
               1.625                1.75             -0.2104
                1.75                1.75           -0.163251
               1.875                1.75           -0.115613
                   2                1.75          -0.0684998
                   0               1.875          -0.0238182
               0.125               1.875          -0.0684064
                0.25               1.875           -0.115613
               0.375               1.875           -0.163689
                 0.5               1.875           -0.208687
               0.625               1.875           -0.247304
                0.75               1.875           -0.276893
               0.875               1.875           -0.295476
                   1               1.875           -0.301812
               1.125               1.875           -0.295476
                1.25               1.875           -0.276893
               1.375               1.875           -0.247304
                 1.5               1.875           -0.208687
               1.625               1.875           -0.163689
                1.75               1.875           -0.115613
               1.875               1.875          -0.0684064
                   2               1.875          -0.0238182
                   0                   2                   0
               0.125                   2          -0.0238182
                0.25                   2          -0.0684998
               0.375                   2           -0.117589
                 0.5                   2           -0.164263
               0.625                   2           -0.204436
                0.75                   2           -0.235193
               0.875                   2           -0.254479
                   1                   2           -0.261047
               1.125                   2           -0.254479
                1.25                   2           -0.235193
               1.375                   2           -0.204436
                 1.5                   2           -0.164263
               1.625                   2           -0.117589
                1.75                   2          -0.0684998
               1.875                   2          -0.0238182
                   2                   2                   0

               CELLS         256        1280
4        0        1       18       17
4        1        2       19       18
4        2        3       20       19
4        3        4       21       20
4        4        5       22       21
4        5        6       23       22
4        6        7       24       23
4        7        8       25       24
4        8        9       26       25
4        9       10       27       26
4       10       11       28       27
4       11       12       29       28
4       12       13       30       29
4       13       14       31       30
4       14       15       32       31
4       15       16       33       32
4       17       18       35       34
4       18       19       36       35
4       19       20       37       36
4       20       21       38       37
4       21       22       39       38
4       22       23       40       39
4       23       24       41       40
4       24       25       42       41
4       25       26       43       42
4       26       27       44       43
4       27       28       45       44
4       28       29       46       45
4       29       30       47       46
4       30       31       48       47
4       31       32       49       48
4       32       33       50       49
4       34       35       52       51
4       35       36       53       52
4       36       37       54       53
4       37       38       55       54
4       38       39       56       55
4       39       40       57       56
4       40       41       58       57
4       41       42       59       58
4       42       43       60       59
4       43       44       61       60
4       44       45       62       61
4       45       46       63       62
4       46       47       64       63
4       47       48       65       64
4       48       49       66       65
4       49       50       67       66
4       51       52       69       68
4       52       53       70       69
4       53       54       71       70
4       54       55       72       71
4       55       56       73       72
4       56       57       74       73
4       57       58       75       74
4       58       59       76       75
4       59       60       77       76
4       60       61       78       77
4       61       62       79       78
4       62       63       80       79
4       63       64       81       80
4       64       65       82       81
4       65       66       83       82
4       66       67       84       83
4       68       69       86       85
4       69       70       87       86
4       70       71       88       87
4       71       72       89       88
4       72       73       90       89
4       73       74       91       90
4       74       75       92       91
4       75       76       93       92
4       76       77       94       93
4       77       78       95       94
4       78       79       96       95
4       79       80       97       96
4       80       81       98       97
4       81       82       99       98
4       82       83      100       99
4       83       84      101      100
4       85       86      103      102
4       86       87      104      103
4       87       88      105      104
4       88       89      106      105
4       89       90      107      106
4       90       91      108      107
4       91       92      109      108
4       92       93      110      109
4       93       94      111      110
4       94       95      112      111
4       95       96      113      112
4       96       97      114      113
4       97       98      115      114
4       98       99      116      115
4       99      100      117      116
4      100      101      118      117
4      102      103      120      119
4      103      104      121      120
4      104      105      122      121
4      105      106      123      122
4      106      107      124      123
4      107      108      125      124
4      108      109      126      125
4      109      110      127      126
4      110      111      128      127
4      111      112      129      128
4      112      113      130      129
4      113      114      131      130
4      114      115      132      131
4      115      116      133      132
4      116      117      134      133
4      117      118      135      134
4      119      120      137      136
4      120      121      138      137
4      121      122      139      138
4      122      123      140      139
4      123      124      141      140
4      124      125      142      141
4      125      126      143      142
4      126      127      144      143
4      127      128      145      144
4      128      129      146      145
4      129      130      147      146
4      130      131      148      147
4      131      132      149      148
4      132      133      150      149
4      133      134      151      150
4      134      135      152      151
4      136      137      154      153
4      137      138      155      154
4      138      139      156      155
4      139      140      157      156
4      140      141      158      157
4      141      142      159      158
4      142      143      160      159
4      143      144      161      160
4      144      145      162      161
4      145      146      163      162
4      146      147      164      163
4      147      148      165      164
4      148      149      166      165
4      149      150      167      166
4      150      151      168      167
4      151      152      169      168
4      153      154      171      170
4      154      155      172      171
4      155      156      173      172
4      156      157      174      173
4      157      158      175      174
4      158      159      176      175
4      159      160      177      176
4      160      161      178      177
4      161      162      179      178
4      162      163      180      179
4      163      164      181      180
4      164      165      182      181
4      165      166      183      182
4      166      167      184      183
4      167      168      185      184
4      168      169      186      185
4      170      171      188      187
4      171      172      189      188
4      172      173      190      189
4      173      174      191      190
4      174      175      192      191
4      175      176      193      192
4      176      177      194      193
4      177      178      195      194
4      178      179      196      195
4      179      180      197      196
4      180      181      198      197
4      181      182      199      198
4      182      183      200      199
4      183      184      201      200
4      184      185      202      201
4      185      186      203      202
4      187      188      205      204
4      188      189      206      205
4      189      190      207      206
4      190      191      208      207
4      191      192      209      208
4      192      193      210      209
4      193      194      211      210
4      194      195      212      211
4      195      196      213      212
4      196      197      214      213
4      197      198      215      214
4      198      199      216      215
4      199      200      217      216
4      200      201      218      217
4      201      202      219      218
4      202      203      220      219
4      204      205      222      221
4      205      206      223      222
4      206      207      224      223
4      207      208      225      224
4      208      209      226      225
4      209      210      227      226
4      210      211      228      227
4      211      212      229      228
4      212      213      230      229
4      213      214      231      230
4      214      215      232      231
4      215      216      233      232
4      216      217      234      233
4      217      218      235      234
4      218      219      236      235
4      219      220      237      236
4      221      222      239      238
4      222      223      240      239
4      223      224      241      240
4      224      225      242      241
4      225      226      243      242
4      226      227      244      243
4      227      228      245      244
4      228      229      246      245
4      229      230      247      246
4      230      231      248      247
4      231      232      249      248
4      232      233      250      249
4      233      234      251      250
4      234      235      252      251
4      235      236      253      252
4      236      237      254      253
4      238      239      256      255
4      239      240      257      256
4      240      241      258      257
4      241      242      259      258
4      242      243      260      259
4      243      244      261      260
4      244      245      262      261
4      245      246      263      262
4      246      247      264      263
4      247      248      265      264
4      248      249      266      265
4      249      250      267      266
4      250      251      268      267
4      251      252      269      268
4      252      253      270      269
4      253      254      271      270
4      255      256      273      272
4      256      257      274      273
4      257      258      275      274
4      258      259      276      275
4      259      260      277      276
4      260      261      278      277
4      261      262      279      278
4      262      263      280      279
4      263      264      281      280
4      264      265      282      281
4      265      266      283      282
4      266      267      284      283
4      267      268      285      284
4      268      269      286      285
4      269      270      287      286
4      270      271      288      287

CELL_TYPES         256
7
7
7
7
7
7
7
7
7
7
7
7
7
7
7
7
7
7
7
7
7
7
7
7
7
7
7
7
7
7
7
7
7
7
7
7
7
7
7
7
7
7
7
7
7
7
7
7
7
7
7
7
7
7
7
7
7
7
7
7
7
7
7
7
7
7
7
7
7
7
7
7
7
7
7
7
7
7
7
7
7
7
7
7
7
7
7
7
7
7
7
7
7
7
7
7
7
7
7
7
7
7
7
7
7
7
7
7
7
7
7
7
7
7
7
7
7
7
7
7
7
7
7
7
7
7
7
7
7
7
7
7
7
7
7
7
7
7
7
7
7
7
7
7
7
7
7
7
7
7
7
7
7
7
7
7
7
7
7
7
7
7
7
7
7
7
7
7
7
7
7
7
7
7
7
7
7
7
7
7
7
7
7
7
7
7
7
7
7
7
7
7
7
7
7
7
7
7
7
7
7
7
7
7
7
7
7
7
7
7
7
7
7
7
7
7
7
7
7
7
7
7
7
7
7
7
7
7
7
7
7
7
7
7
7
7
7
7
7
7
7
7
7
7
7
7
7
7
7
7
7
7
7
7
7
7

POINT_DATA         289
SCALARS load1_x   double  1
LOOKUP_TABLE load1_x
0
0
0
0
0
0
0
0
0
0
0
0
0
0
0
0
0
0
0
0
0
0
0
0
0
0
0
0
0
0
0
0
0
0
0
0
0
0
0
0
0
0
0
0
0
0
0
0
0
0
0
0
0
0
0
0
0
0
0
0
0
0
0
0
0
0
0
0
0
0
0
0
0
0
0
0
0
0
0
0
0
0
0
0
0
0
0
0
0
0
0
0
0
0
0
0
0
0
0
0
0
0
0
0
0
0
0
0
0
0
0
0
0
0
0
0
0
0
0
0
0
0
0
0
0
0
0
0
0
0
0
0
0
0
0
0
0
0
0
0
0
0
0
0
0
0
0
0
0
0
0
0
0
0
0
0
0
0
0
0
0
0
0
0
0
0
0
0
0
0
0
0
0
0
0
0
0
0
0
0
0
0
0
0
0
0
0
0
0
0
0
0
0
0
0
0
0
0
0
0
0
0
0
0
0
0
0
0
0
0
0
0
0
0
0
0
0
0
0
0
0
0
0
0
0
0
0
0
0
0
0
0
0
0
0
0
0
0
0
0
0
0
0
0
0
0
0
0
0
0
0
0
0
0
0
0
0
0
0
0
0
0
0
0
0
0
0
0
0
0
0
0
0
0
0
0
0
0
0
0
0
0
0
0
0
0
0
0
0
SCALARS load1_y   double  1
LOOKUP_TABLE load1_y
0
0
0
0
0
0
0
0
0
0
0
0
0
0
0
0
0
0
0
0
0
0
0
0
0
0
0
0
0
0
0
0
0
0
0
0
0
0
0
0
0
0
0
0
0
0
0
0
0
0
0
0
0
0
0
0
0
0
0
0
0
0
0
0
0
0
0
0
0
0
0
0
0
0
0
0
0
0
0
0
0
0
0
0
0
0
0
0
0
0
0
0
0
0
0
0
0
0
0
0
0
0
0
0
0
0
0
0
0
0
0
0
0
0
0
0
0
0
0
0
0
0
0
0
0
0
0
0
0
0
0
0
0
0
0
0
0
0
0
0
0
0
0
0
0
0
0
0
0
0
0
0
0
0
0
0
0
0
0
0
0
0
0
0
0
0
0
0
0
0
0
0
0
0
0
0
0
0
0
0
0
0
0
0
0
0
0
0
0
0
0
0
0
0
0
0
0
0
0
0
0
0
0
0
0
0
0
0
0
0
0
0
0
0
0
0
0
0
0
0
0
0
0
0
0
0
0
0
0
0
0
0
0
0
0
0
0
0
0
0
0
0
0
0
0
0
0
0
0
0
0
0
0
0
0
0
0
0
0
0
0
0
0
0
0
0
0
0
0
0
0
0
0
0
0
0
0
0
0
0
0
0
0
0
0
0
0
0
0
SCALARS load1_z   double  1
LOOKUP_TABLE load1_z
0
-0.000158788
-0.000456666
-0.000783925
-0.00109509
-0.00136291
-0.00156795
-0.00169653
-0.00174032
-0.00169653
-0.00156795
-0.00136291
-0.00109509
-0.000783925
-0.000456666
-0.000158788
0
-0.000158788
-0.000456043
-0.00077075
-0.00109126
-0.00139125
-0.00164869
-0.00184595
-0.00196984
-0.00201208
-0.00196984
-0.00184595
-0.00164869
-0.00139125
-0.00109126
-0.00077075
-0.000456043
-0.000158788
-0.000456666
-0.00077075
-0.00108834
-0.00140267
-0.00169483
-0.0019458
-0.00213878
-0.00226041
-0.00230197
-0.00226041
-0.00213878
-0.0019458
-0.00169483
-0.00140267
-0.00108834
-0.00077075
-0.000456666
-0.000783925
-0.00109126
-0.00140267
-0.00170944
-0.00199578
-0.00224368
-0.00243595
-0.002558
-0.00259987
-0.002558
-0.00243595
-0.00224368
-0.00199578
-0.00170944
-0.00140267
-0.00109126
-0.000783925
-0.00109509
-0.00139125
-0.00169483
-0.00199578
-0.00227943
-0.00252827
-0.00272406
-0.0028499
-0.00289339
-0.0028499
-0.00272406
-0.00252827
-0.00227943
-0.00199578
-0.00169483
-0.00139125
-0.00109509
-0.00136291
-0.00164869
-0.0019458
-0.00224368
-0.00252827
-0.00278245
-0.00298679
-0.0031209
-0.00316784
-0.0031209
-0.00298679
-0.00278245
-0.00252827
-0.00224368
-0.0019458
-0.00164869
-0.00136291
-0.00156795
-0.00184595
-0.00213878
-0.00243595
-0.00272406
-0.00298679
-0.00320439
-0.00335256
-0.00340577
-0.00335256
-0.00320439
-0.00298679
-0.00272406
-0.00243595
-0.00213878
-0.00184595
-0.00156795
-0.00169653
-0.00196984
-0.00226041
-0.002558
-0.0028499
-0.0031209
-0.00335256
-0.00352022
-0.00358544
-0.00352022
-0.00335256
-0.0031209
-0.0028499
-0.002558
-0.00226041
-0.00196984
-0.00169653
-0.00174032
-0.00201208
-0.00230197
-0.00259987
-0.00289339
-0.00316784
-0.00340577
-0.00358544
-0.00366782
-0.00358544
-0.00340577
-0.00316784
-0.00289339
-0.00259987
-0.00230197
-0.00201208
-0.00174032
-0.00169653
-0.00196984
-0.00226041
-0.002558
-0.0028499
-0.0031209
-0.00335256
-0.00352022
-0.00358544
-0.00352022
-0.00335256
-0.0031209
-0.0028499
-0.002558
-0.00226041
-0.00196984
-0.00169653
-0.00156795
-0.00184595
-0.00213878
-0.00243595
-0.00272406
-0.00298679
-0.00320439
-0.00335256
-0.00340577
-0.00335256
-0.00320439
-0.00298679
-0.00272406
-0.00243595
-0.00213878
-0.00184595
-0.00156795
-0.00136291
-0.00164869
-0.0019458
-0.00224368
-0.00252827
-0.00278245
-0.00298679
-0.0031209
-0.00316784
-0.0031209
-0.00298679
-0.00278245
-0.00252827
-0.00224368
-0.0019458
-0.00164869
-0.00136291
-0.00109509
-0.00139125
-0.00169483
-0.00199578
-0.00227943
-0.00252827
-0.00272406
-0.0028499
-0.00289339
-0.0028499
-0.00272406
-0.00252827
-0.00227943
-0.00199578
-0.00169483
-0.00139125
-0.00109509
-0.000783925
-0.00109126
-0.00140267
-0.00170944
-0.00199578
-0.00224368
-0.00243595
-0.002558
-0.00259987
-0.002558
-0.00243595
-0.00224368
-0.00199578
-0.00170944
-0.00140267
-0.00109126
-0.000783925
-0.000456666
-0.00077075
-0.00108834
-0.00140267
-0.00169483
-0.0019458
-0.00213878
-0.00226041
-0.00230197
-0.00226041
-0.00213878
-0.0019458
-0.00169483
-0.00140267
-0.00108834
-0.00077075
-0.000456666
-0.000158788
-0.000456043
-0.00077075
-0.00109126
-0.00139125
-0.00164869
-0.00184595
-0.00196984
-0.00201208
-0.00196984
-0.00184595
-0.00164869
-0.00139125
-0.00109126
-0.00077075
-0.000456043
-0.000158788
0
-0.000158788
-0.000456666
-0.000783925
-0.00109509
-0.00136291
-0.00156795
-0.00169653
-0.00174032
-0.00169653
-0.00156795
-0.00136291
-0.00109509
-0.000783925
-0.000456666
-0.000158788
0
SCALARS load1_theta_1   double  1
LOOKUP_TABLE load1_theta_1
0
-0.00257456
-0.00249708
-0.00244117
-0.00232224
-0.00221997
-0.00214215
-0.00209492
-0.00207913
-0.00209492
-0.00214215
-0.00221997
-0.00232224
-0.00244117
-0.00249708
-0.00257456
0
-0.00201663
-0.00243408
-0.00251408
-0.00248227
-0.00240834
-0.00234326
-0.00229541
-0.00226762
-0.00225861
-0.00226762
-0.00229541
-0.00234326
-0.00240834
-0.00248227
-0.00251408
-0.00243408
-0.00201663
-0.00258374
-0.00258133
-0.00254916
-0.00249017
-0.0024349
-0.00239645
-0.00237588
-0.00236793
-0.0023662
-0.00236793
-0.00237588
-0.00239645
-0.0024349
-0.00249017
-0.00254916
-0.00258133
-0.00258374
-0.00259541
-0.00251471
-0.00245244
-0.00239606
-0.00236036
-0.00235082
-0.00236087
-0.00237655
-0.00238376
-0.00237655
-0.00236087
-0.00235082
-0.00236036
-0.00239606
-0.00245244
-0.00251471
-0.00259541
-0.00234583
-0.00225637
-0.00219672
-0.00216087
-0.00215419
-0.00217956
-0.00222719
-0.00227382
-0.00229325
-0.00227382
-0.00222719
-0.00217956
-0.00215419
-0.00216087
-0.00219672
-0.00225637
-0.00234583
-0.00191313
-0.00183952
-0.00179627
-0.00178231
-0.00180257
-0.00186114
-0.00195026
-0.00203819
-0.00207523
-0.00203819
-0.00195026
-0.00186114
-0.00180257
-0.00178231
-0.00179627
-0.00183952
-0.00191313
-0.00134911
-0.00129908
-0.00127352
-0.00127414
-0.00130696
-0.00138027
-0.00149832
-0.00163693
-0.00170468
-0.00163693
-0.00149832
-0.00138027
-0.00130696
-0.00127414
-0.00127352
-0.00129908
-0.00134911
-0.000696898
-0.000672026
-0.000660801
-0.000665091
-0.000689428
-0.000741587
-0.000834859
-0.000990399
-0.00113779
-0.000990399
-0.000834859
-0.000741587
-0.000689428
-0.000665091
-0.000660801
-0.000672026
-0.000696898
3.69171e-17
9.40003e-17
1.37368e-16
2.19063e-16
2.55872e-16
3.31928e-16
3.85488e-16
3.65539e-16
3.48329e-16
3.08916e-16
2.76146e-16
1.91687e-16
6.657e-17
1.27936e-17
-5.31801e-17
-1.90115e-16
-3.14852e-16
0.000696898
0.000672026
0.000660801
0.000665091
0.000689428
0.000741587
0.000834859
0.000990399
0.00113779
0.000990399
0.000834859
0.000741587
0.000689428
0.000665091
0.000660801
0.000672026
0.000696898
0.00134911
0.00129908
0.00127352
0.00127414
0.00130696
0.00138027
0.00149832
0.00163693
0.00170468
0.00163693
0.00149832
0.00138027
0.00130696
0.00127414
0.00127352
0.00129908
0.00134911
0.00191313
0.00183952
0.00179627
0.00178231
0.00180257
0.00186114
0.00195026
0.00203819
0.00207523
0.00203819
0.00195026
0.00186114
0.00180257
0.00178231
0.00179627
0.00183952
0.00191313
0.00234583
0.00225637
0.00219672
0.00216087
0.00215419
0.00217956
0.00222719
0.00227382
0.00229325
0.00227382
0.00222719
0.00217956
0.00215419
0.00216087
0.00219672
0.00225637
0.00234583
0.00259541
0.00251471
0.00245244
0.00239606
0.00236036
0.00235082
0.00236087
0.00237655
0.00238376
0.00237655
0.00236087
0.00235082
0.00236036
0.00239606
0.00245244
0.00251471
0.00259541
0.00258374
0.00258133
0.00254916
0.00249017
0.0024349
0.00239645
0.00237588
0.00236793
0.0023662
0.00236793
0.00237588
0.00239645
0.0024349
0.00249017
0.00254916
0.00258133
0.00258374
0.00201663
0.00243408
0.00251408
0.00248227
0.00240834
0.00234326
0.00229541
0.00226762
0.00225861
0.00226762
0.00229541
0.00234326
0.00240834
0.00248227
0.00251408
0.00243408
0.00201663
0
0.00257456
0.00249708
0.00244117
0.00232224
0.00221997
0.00214215
0.00209492
0.00207913
0.00209492
0.00214215
0.00221997
0.00232224
0.00244117
0.00249708
0.00257456
0
SCALARS load1_theta_2   double  1
LOOKUP_TABLE load1_theta_2
0
0.00201663
0.00258374
0.00259541
0.00234583
0.00191313
0.00134911
0.000696898
1.21431e-16
-0.000696898
-0.00134911
-0.00191313
-0.00234583
-0.00259541
-0.00258374
-0.00201663
0
0.00257456
0.00243408
0.00258133
0.00251471
0.00225637
0.00183952
0.00129908
0.000672026
9.36751e-17
-0.000672026
-0.00129908
-0.00183952
-0.00225637
-0.00251471
-0.00258133
-0.00243408
-0.00257456
0.00249708
0.00251408
0.00254916
0.00245244
0.00219672
0.00179627
0.00127352
0.000660801
8.1532e-17
-0.000660801
-0.00127352
-0.00179627
-0.00219672
-0.00245244
-0.00254916
-0.00251408
-0.00249708
0.00244117
0.00248227
0.00249017
0.00239606
0.00216087
0.00178231
0.00127414
0.000665091
8.50015e-17
-0.000665091
-0.00127414
-0.00178231
-0.00216087
-0.00239606
-0.00249017
-0.00248227
-0.00244117
0.00232224
0.00240834
0.0024349
0.00236036
0.00215419
0.00180257
0.00130696
0.000689428
8.50015e-17
-0.000689428
-0.00130696
-0.00180257
-0.00215419
-0.00236036
-0.0024349
-0.00240834
-0.00232224
0.00221997
0.00234326
0.00239645
0.00235082
0.00217956
0.00186114
0.00138027
0.000741587
1.2837e-16
-0.000741587
-0.00138027
-0.00186114
-0.00217956
-0.00235082
-0.00239645
-0.00234326
-0.00221997
0.00214215
0.00229541
0.00237588
0.00236087
0.00222719
0.00195026
0.00149832
0.000834859
1.5439e-16
-0.000834859
-0.00149832
-0.00195026
-0.00222719
-0.00236087
-0.00237588
-0.00229541
-0.00214215
0.00209492
0.00226762
0.00236793
0.00237655
0.00227382
0.00203819
0.00163693
0.000990399
1.63064e-16
-0.000990399
-0.00163693
-0.00203819
-0.00227382
-0.00237655
-0.00236793
-0.00226762
-0.00209492
0.00207913
0.00225861
0.0023662
0.00238376
0.00229325
0.00207523
0.00170468
0.00113779
2.32453e-16
-0.00113779
-0.00170468
-0.00207523
-0.00229325
-0.00238376
-0.0023662
-0.00225861
-0.00207913
0.00209492
0.00226762
0.00236793
0.00237655
0.00227382
0.00203819
0.00163693
0.000990399
2.1684e-16
-0.000990399
-0.00163693
-0.00203819
-0.00227382
-0.00237655
-0.00236793
-0.00226762
-0.00209492
0.00214215
0.00229541
0.00237588
0.00236087
0.00222719
0.00195026
0.00149832
0.000834859
1.99493e-16
-0.000834859
-0.00149832
-0.00195026
-0.00222719
-0.00236087
-0.00237588
-0.00229541
-0.00214215
0.00221997
0.00234326
0.00239645
0.00235082
0.00217956
0.00186114
0.00138027
0.000741587
2.15106e-16
-0.000741587
-0.00138027
-0.00186114
-0.00217956
-0.00235082
-0.00239645
-0.00234326
-0.00221997
0.00232224
0.00240834
0.0024349
0.00236036
0.00215419
0.00180257
0.00130696
0.000689428
3.01842e-16
-0.000689428
-0.00130696
-0.00180257
-0.00215419
-0.00236036
-0.0024349
-0.00240834
-0.00232224
0.00244117
0.00248227
0.00249017
0.00239606
0.00216087
0.00178231
0.00127414
0.000665091
3.62557e-16
-0.000665091
-0.00127414
-0.00178231
-0.00216087
-0.00239606
-0.00249017
-0.00248227
-0.00244117
0.00249708
0.00251408
0.00254916
0.00245244
0.00219672
0.00179627
0.00127352
0.000660801
4.4062e-16
-0.000660801
-0.00127352
-0.00179627
-0.00219672
-0.00245244
-0.00254916
-0.00251408
-0.00249708
0.00257456
0.00243408
0.00258133
0.00251471
0.00225637
0.00183952
0.00129908
0.000672026
5.10009e-16
-0.000672026
-0.00129908
-0.00183952
-0.00225637
-0.00251471
-0.00258133
-0.00243408
-0.00257456
0
0.00201663
0.00258374
0.00259541
0.00234583
0.00191313
0.00134911
0.000696898
5.64219e-16
-0.000696898
-0.00134911
-0.00191313
-0.00234583
-0.00259541
-0.00258374
-0.00201663
0
SCALARS load1_theta_3   double  1
LOOKUP_TABLE load1_theta_3
0
0
0
0
0
0
0
0
0
0
0
0
0
0
0
0
0
0
0
0
0
0
0
0
0
0
0
0
0
0
0
0
0
0
0
0
0
0
0
0
0
0
0
0
0
0
0
0
0
0
0
0
0
0
0
0
0
0
0
0
0
0
0
0
0
0
0
0
0
0
0
0
0
0
0
0
0
0
0
0
0
0
0
0
0
0
0
0
0
0
0
0
0
0
0
0
0
0
0
0
0
0
0
0
0
0
0
0
0
0
0
0
0
0
0
0
0
0
0
0
0
0
0
0
0
0
0
0
0
0
0
0
0
0
0
0
0
0
0
0
0
0
0
0
0
0
0
0
0
0
0
0
0
0
0
0
0
0
0
0
0
0
0
0
0
0
0
0
0
0
0
0
0
0
0
0
0
0
0
0
0
0
0
0
0
0
0
0
0
0
0
0
0
0
0
0
0
0
0
0
0
0
0
0
0
0
0
0
0
0
0
0
0
0
0
0
0
0
0
0
0
0
0
0
0
0
0
0
0
0
0
0
0
0
0
0
0
0
0
0
0
0
0
0
0
0
0
0
0
0
0
0
0
0
0
0
0
0
0
0
0
0
0
0
0
0
0
0
0
0
0
0
0
0
0
0
0
0
0
0
0
0
0
0
0
0
0
0
0

CELL_DATA         256
SCALARS load1_Mises   double  1
LOOKUP_TABLE load1__Mises
3.1021e+06
662518
157652
402806
626868
797111
916077
977847
977847
916077
797111
626868
402806
157652
662518
3.1021e+06
662518
210983
163723
382054
583575
750940
873698
939164
939164
873698
750940
583575
382054
163723
210983
662518
157652
163723
238201
388529
564944
731070
860739
932239
932239
860739
731070
564944
388529
238201
163723
157652
402806
382054
388529
461676
598544
756511
893368
973054
973054
893368
756511
598544
461676
388529
382054
402806
626868
583575
564944
598544
698144
842383
987559
1.0795e+06
1.0795e+06
987559
842383
698144
598544
564944
583575
626868
797111
750940
731070
756511
842383
984348
1.15288e+06
1.27372e+06
1.27372e+06
1.15288e+06
984348
842383
756511
731070
750940
797111
916077
873698
860739
893368
987559
1.15288e+06
1.38513e+06
1.60627e+06
1.60627e+06
1.38513e+06
1.15288e+06
987559
893368
860739
873698
916077
977847
939164
932239
973054
1.0795e+06
1.27372e+06
1.60627e+06
2.22142e+06
2.22142e+06
1.60627e+06
1.27372e+06
1.0795e+06
973054
932239
939164
977847
977847
939164
932239
973054
1.0795e+06
1.27372e+06
1.60627e+06
2.22142e+06
2.22142e+06
1.60627e+06
1.27372e+06
1.0795e+06
973054
932239
939164
977847
916077
873698
860739
893368
987559
1.15288e+06
1.38513e+06
1.60627e+06
1.60627e+06
1.38513e+06
1.15288e+06
987559
893368
860739
873698
916077
797111
750940
731070
756511
842383
984348
1.15288e+06
1.27372e+06
1.27372e+06
1.15288e+06
984348
842383
756511
731070
750940
797111
626868
583575
564944
598544
698144
842383
987559
1.0795e+06
1.0795e+06
987559
842383
698144
598544
564944
583575
626868
402806
382054
388529
461676
598544
756511
893368
973054
973054
893368
756511
598544
461676
388529
382054
402806
157652
163723
238201
388529
564944
731070
860739
932239
932239
860739
731070
564944
388529
238201
163723
157652
662518
210983
163723
382054
583575
750940
873698
939164
939164
873698
750940
583575
382054
163723
210983
662518
3.1021e+06
662518
157652
402806
626868
797111
916077
977847
977847
916077
797111
626868
402806
157652
662518
3.1021e+06
