# vtk DataFile Version 3.0
Cables to test STAP90
ASCII
DATASET UNSTRUCTURED_GRID

POINTS         4   double
0                   0                   0
                   2                   0            -2.08181
                   0                   2                   0
                   2                   2            -2.08181

               CELLS           1           5
4        0        1        3        2

CELL_TYPES           1
7

POINT_DATA           4
SCALARS load1_x   double  1
LOOKUP_TABLE load1_x
0
0
0
0
SCALARS load1_y   double  1
LOOKUP_TABLE load1_y
0
0
0
0
SCALARS load1_z   double  1
LOOKUP_TABLE load1_z
0
-0.0138787
0
-0.0138787
SCALARS load1_theta_1   double  1
LOOKUP_TABLE load1_theta_1
0
0.00119203
0
-0.00119203
SCALARS load1_theta_2   double  1
LOOKUP_TABLE load1_theta_2
0
0.0114421
0
0.0114421
SCALARS load1_theta_3   double  1
LOOKUP_TABLE load1_theta_3
0
0
0
0

CELL_DATA           1
SCALARS load1_Mises   double  1
LOOKUP_TABLE load1__Mises
1.02759e+06
