# vtk DataFile Version 3.0
Cables to test STAP90
ASCII
DATASET UNSTRUCTURED_GRID

POINTS        25   double
0              0              0
0.5              0              0
1              0              0
1.5              0              0
2              0              0
0            0.5              0
0.5            0.5              0
1            0.5              0
1.5            0.5              0
2            0.5              0
0            0.5              0
0.5              1              0
1              1              0
1.5              1              0
2              1              0
0            1.5              0
0.5            1.5              0
1            1.5              0
1.5            1.5              0
2            1.5              0
0              2              0
0.5              2              0
1              2              0
1.5              2              0
2              2              0

CELLS          16          80
4          01        6        5
4          12        7        6
4          23        8        7
4          34        9        8
4          56       11       10
4          67       12       11
4          78       13       12
4          89       14       13
4         1011       16       15
4         1112       17       16
4         1213       18       17
4         1314       19       18
4         1516       21       20
4         1617       22       21
4         1718       23       22
4         1819       24       23

CELL_TYPES          16
7
7
7
7
7
7
7
7
7
7
7
7
7
7
7
7

POINT_DATA          25
SCALARS load1_x   double  1
LOOKUP_TABLE load1_x
0
-3.52317e-07
-6.70779e-07
-9.92311e-07
-1.32312e-06
0
-3.09259e-07
-6.43518e-07
-9.78891e-07
-1.31365e-06
0
-3.0088e-07
-6.29813e-07
-9.69968e-07
-1.30692e-06
0
-2.99976e-07
-6.39708e-07
-9.74972e-07
-1.30964e-06
0
-3.48838e-07
-6.62053e-07
-9.84144e-07
-1.31498e-06
SCALARS load1_y   double  1
LOOKUP_TABLE load1_y
0
-1.57455e-07
-1.94793e-07
-2.08185e-07
-2.14996e-07
0
-5.93898e-08
-1.00433e-07
-1.07465e-07
-1.12936e-07
0
-6.13478e-09
-1.86684e-09
-4.11212e-09
-6.05619e-09
0
6.33762e-08
9.56836e-08
9.94737e-08
1.00657e-07
0
1.58273e-07
1.92343e-07
1.99814e-07
2.02788e-07
SCALARS load1_z   double  1
LOOKUP_TABLE load1_z
0
0
0
0
0
0
0
0
0
0
0
0
0
0
0
0
0
0
0
0
0
0
0
0
0
SCALARS load1_theta_1   double  1
LOOKUP_TABLE load1_theta_1
0
0
0
0
0
0
0
0
0
0
0
0
0
0
0
0
0
0
0
0
0
0
0
0
0
SCALARS load1_theta_2   double  1
LOOKUP_TABLE load1_theta_2
0
0
0
0
0
0
0
0
0
0
0
0
0
0
0
0
0
0
0
0
0
0
0
0
0
SCALARS load1_theta_3   double  1
LOOKUP_TABLE load1_theta_3
0
0
0
0
0
0
0
0
0
0
0
0
0
0
0
0
0
0
0
0
0
0
0
0
0

CELL_DATA          16
SCALARS load1_Mises   double  1
LOOKUP_TABLE load1__Mises
19.8077
19.5613
19.6994
19.9889
18.289
19.655
20.2631
20.2111
17.6613
19.8781
20.255
20.2091
19.4297
19.5633
19.7243
19.9851
