# vtk DataFile Version 3.0
Cables to test STAP90
ASCII
DATASET UNSTRUCTURED_GRID

POINTS         9   double
0              0              0
1              0              0
2              0              0
0              1              0
1              1              0
2              1              0
0              2              0
1              2              0
2              2              0

CELLS           4          20
4          01        4        3
4          12        5        4
4          34        7        6
4          45        8        7

CELL_TYPES           4
7
7
7
7

POINT_DATA           9
SCALARS load1_x   double  1
LOOKUP_TABLE load1_x
0
-6.6078e-07
-1.3107e-06
0
-6.14122e-07
-1.30238e-06
0
-6.6078e-07
-1.3107e-06
SCALARS load1_y   double  1
LOOKUP_TABLE load1_y
0
-2.0523e-07
-2.10916e-07
0
7.27919e-23
2.64698e-22
0
2.0523e-07
2.10916e-07
SCALARS load1_z   double  1
LOOKUP_TABLE load1_z
0
0
0
0
0
0
0
0
0
SCALARS load1_theta_1   double  1
LOOKUP_TABLE load1_theta_1
0
0
0
0
0
0
0
0
0
SCALARS load1_theta_2   double  1
LOOKUP_TABLE load1_theta_2
0
0
0
0
0
0
0
0
0
SCALARS load1_theta_3   double  1
LOOKUP_TABLE load1_theta_3
0
0
0
0
0
0
0
0
0

CELL_DATA           4
SCALARS load1_Mises   double  1
LOOKUP_TABLE load1__Mises
18.8946
20.1297
18.8946
20.1297
