# vtk DataFile Version 3.0
Cables to test STAP90
ASCII
DATASET UNSTRUCTURED_GRID

POINTS        81   double
0                   0                   0
            0.250029         1.67879e-05                   0
            0.500053         2.37109e-05                   0
            0.750076         2.74753e-05                   0
              1.0001         2.92564e-05                   0
             1.25012         3.00591e-05                   0
             1.50015         3.04252e-05                   0
             1.75017          3.0714e-05                   0
              2.0002         3.11152e-05                   0
                   0                0.25                   0
            0.250023             0.25001                   0
            0.500049            0.250017                   0
            0.750074             0.25002                   0
              1.0001            0.250022                   0
             1.25012            0.250023                   0
             1.50015            0.250023                   0
             1.75017            0.250023                   0
              2.0002            0.250024                   0
                   0                 0.5                   0
            0.250022            0.500006                   0
            0.500047             0.50001                   0
            0.750072            0.500013                   0
              1.0001            0.500015                   0
             1.25012            0.500015                   0
             1.50015            0.500015                   0
             1.75017            0.500016                   0
              2.0002            0.500016                   0
                   0                0.75                   0
            0.250022            0.750003                   0
            0.500046            0.750005                   0
            0.750071            0.750006                   0
              1.0001            0.750007                   0
             1.25012            0.750008                   0
             1.50015            0.750008                   0
             1.75017            0.750008                   0
              2.0002            0.750008                   0
                   0                   1                   0
            0.250022                   1                   0
            0.500046                   1                   0
             0.75007                   1                   0
              1.0001                   1                   0
             1.25012                   1                   0
             1.50015                   1                   0
             1.75017                   1                   0
              2.0002                   1                   0
                   0                1.25                   0
            0.250022                1.25                   0
            0.500046                1.25                   0
            0.750071             1.24999                   0
              1.0001             1.24999                   0
             1.25012             1.24999                   0
             1.50015             1.24999                   0
             1.75017             1.24999                   0
              2.0002             1.24999                   0
                   0                 1.5                   0
            0.250022             1.49999                   0
            0.500047             1.49999                   0
            0.750072             1.49999                   0
              1.0001             1.49999                   0
             1.25012             1.49998                   0
             1.50015             1.49998                   0
             1.75017             1.49998                   0
              2.0002             1.49998                   0
                   0                1.75                   0
            0.250023             1.74999                   0
            0.500049             1.74998                   0
            0.750074             1.74998                   0
              1.0001             1.74998                   0
             1.25012             1.74998                   0
             1.50015             1.74998                   0
             1.75017             1.74998                   0
              2.0002             1.74998                   0
                   0                   2                   0
            0.250029             1.99998                   0
            0.500053             1.99998                   0
            0.750076             1.99997                   0
              1.0001             1.99997                   0
             1.25012             1.99997                   0
             1.50015             1.99997                   0
             1.75017             1.99997                   0
              2.0002             1.99997                   0

               CELLS          64         320
4          01       10        9
4          12       11       10
4          23       12       11
4          34       13       12
4          45       14       13
4          56       15       14
4          67       16       15
4          78       17       16
4          910       19       18
4         1011       20       19
4         1112       21       20
4         1213       22       21
4         1314       23       22
4         1415       24       23
4         1516       25       24
4         1617       26       25
4         1819       28       27
4         1920       29       28
4         2021       30       29
4         2122       31       30
4         2223       32       31
4         2324       33       32
4         2425       34       33
4         2526       35       34
4         2728       37       36
4         2829       38       37
4         2930       39       38
4         3031       40       39
4         3132       41       40
4         3233       42       41
4         3334       43       42
4         3435       44       43
4         3637       46       45
4         3738       47       46
4         3839       48       47
4         3940       49       48
4         4041       50       49
4         4142       51       50
4         4243       52       51
4         4344       53       52
4         4546       55       54
4         4647       56       55
4         4748       57       56
4         4849       58       57
4         4950       59       58
4         5051       60       59
4         5152       61       60
4         5253       62       61
4         5455       64       63
4         5556       65       64
4         5657       66       65
4         5758       67       66
4         5859       68       67
4         5960       69       68
4         6061       70       69
4         6162       71       70
4         6364       73       72
4         6465       74       73
4         6566       75       74
4         6667       76       75
4         6768       77       76
4         6869       78       77
4         6970       79       78
4         7071       80       79

CELL_TYPES          64
7
7
7
7
7
7
7
7
7
7
7
7
7
7
7
7
7
7
7
7
7
7
7
7
7
7
7
7
7
7
7
7
7
7
7
7
7
7
7
7
7
7
7
7
7
7
7
7
7
7
7
7
7
7
7
7
7
7
7
7
7
7
7
7

POINT_DATA          81
SCALARS load1_x   double  1
LOOKUP_TABLE load1_x
0
1.94868e-07
3.54777e-07
5.0966e-07
6.66663e-07
8.26853e-07
9.90009e-07
1.15539e-06
1.32186e-06
0
1.55333e-07
3.25321e-07
4.91516e-07
6.56167e-07
8.20817e-07
9.86086e-07
1.15209e-06
1.31868e-06
0
1.49758e-07
3.10574e-07
4.7769e-07
6.4557e-07
8.13231e-07
9.80556e-07
1.1477e-06
1.31486e-06
0
1.47462e-07
3.05386e-07
4.70341e-07
6.38645e-07
8.07595e-07
9.76127e-07
1.14403e-06
1.31164e-06
0
1.46935e-07
3.03902e-07
4.68191e-07
6.36314e-07
8.05567e-07
9.74463e-07
1.14261e-06
1.31039e-06
0
1.47462e-07
3.05386e-07
4.70341e-07
6.38645e-07
8.07595e-07
9.76127e-07
1.14403e-06
1.31164e-06
0
1.49758e-07
3.10574e-07
4.7769e-07
6.4557e-07
8.13231e-07
9.80556e-07
1.1477e-06
1.31486e-06
0
1.55333e-07
3.25321e-07
4.91516e-07
6.56167e-07
8.20817e-07
9.86086e-07
1.15209e-06
1.31868e-06
0
1.94868e-07
3.54777e-07
5.0966e-07
6.66663e-07
8.26853e-07
9.90009e-07
1.15539e-06
1.32186e-06
SCALARS load1_y   double  1
LOOKUP_TABLE load1_y
0
1.1192e-07
1.58073e-07
1.83168e-07
1.95043e-07
2.00394e-07
2.02835e-07
2.0476e-07
2.07434e-07
0
6.36937e-08
1.11866e-07
1.35412e-07
1.46653e-07
1.51303e-07
1.53176e-07
1.54641e-07
1.57249e-07
0
3.72751e-08
6.84213e-08
8.79123e-08
9.73247e-08
1.01251e-07
1.0272e-07
1.03779e-07
1.06128e-07
0
1.7529e-08
3.25978e-08
4.28497e-08
4.83531e-08
5.06795e-08
5.15369e-08
5.21243e-08
5.35614e-08
0
-4.05319e-23
-1.05879e-22
-2.38228e-22
-3.87121e-22
-5.29396e-22
-6.94832e-22
-8.33798e-22
-9.13414e-22
0
-1.7529e-08
-3.25978e-08
-4.28497e-08
-4.83531e-08
-5.06795e-08
-5.15369e-08
-5.21243e-08
-5.35614e-08
0
-3.72751e-08
-6.84213e-08
-8.79123e-08
-9.73247e-08
-1.01251e-07
-1.0272e-07
-1.03779e-07
-1.06128e-07
0
-6.36937e-08
-1.11866e-07
-1.35412e-07
-1.46653e-07
-1.51303e-07
-1.53176e-07
-1.54641e-07
-1.57249e-07
0
-1.1192e-07
-1.58073e-07
-1.83168e-07
-1.95043e-07
-2.00394e-07
-2.02835e-07
-2.0476e-07
-2.07434e-07
SCALARS load1_z   double  1
LOOKUP_TABLE load1_z
0
0
0
0
0
0
0
0
0
0
0
0
0
0
0
0
0
0
0
0
0
0
0
0
0
0
0
0
0
0
0
0
0
0
0
0
0
0
0
0
0
0
0
0
0
0
0
0
0
0
0
0
0
0
0
0
0
0
0
0
0
0
0
0
0
0
0
0
0
0
0
0
0
0
0
0
0
0
0
0
0
SCALARS load1_theta_1   double  1
LOOKUP_TABLE load1_theta_1
0
0
0
0
0
0
0
0
0
0
0
0
0
0
0
0
0
0
0
0
0
0
0
0
0
0
0
0
0
0
0
0
0
0
0
0
0
0
0
0
0
0
0
0
0
0
0
0
0
0
0
0
0
0
0
0
0
0
0
0
0
0
0
0
0
0
0
0
0
0
0
0
0
0
0
0
0
0
0
0
0
SCALARS load1_theta_2   double  1
LOOKUP_TABLE load1_theta_2
0
0
0
0
0
0
0
0
0
0
0
0
0
0
0
0
0
0
0
0
0
0
0
0
0
0
0
0
0
0
0
0
0
0
0
0
0
0
0
0
0
0
0
0
0
0
0
0
0
0
0
0
0
0
0
0
0
0
0
0
0
0
0
0
0
0
0
0
0
0
0
0
0
0
0
0
0
0
0
0
0
SCALARS load1_theta_3   double  1
LOOKUP_TABLE load1_theta_3
0
0
0
0
0
0
0
0
0
0
0
0
0
0
0
0
0
0
0
0
0
0
0
0
0
0
0
0
0
0
0
0
0
0
0
0
0
0
0
0
0
0
0
0
0
0
0
0
0
0
0
0
0
0
0
0
0
0
0
0
0
0
0
0
0
0
0
0
0
0
0
0
0
0
0
0
0
0
0
0
0

CELL_DATA          64
SCALARS load1_Mises   double  1
LOOKUP_TABLE load1__Mises
21.3252
19.7634
19.2363
19.2969
19.4928
19.7098
19.8882
19.9891
18.2724
19.6876
19.8952
19.9148
19.9384
19.9692
20.0091
20.0506
17.5207
18.8116
19.7219
20.0855
20.1795
20.167
20.1352
20.138
17.2401
18.5006
19.4988
20.0663
20.261
20.2591
20.2014
20.1926
17.2401
18.5006
19.4988
20.0663
20.261
20.2591
20.2014
20.1926
17.5207
18.8116
19.7219
20.0855
20.1795
20.167
20.1352
20.138
18.2724
19.6876
19.8952
19.9148
19.9384
19.9692
20.0091
20.0506
21.3252
19.7634
19.2363
19.2969
19.4928
19.7098
19.8882
19.9891
