# vtk DataFile Version 3.0
Cables to test STAP90
ASCII
DATASET UNSTRUCTURED_GRID

POINTS       289   double
0              0              0
0.25              0              0
0.5              0              0
0.75              0              0
1              0              0
1.25              0              0
1.5              0              0
1.75              0              0
2              0              0
0           0.25              0
0.25           0.25              0
0.5           0.25              0
0.75           0.25              0
1           0.25              0
1.25           0.25              0
1.5           0.25              0
1.75           0.25              0
2           0.25              0
0            0.5              0
0.25            0.5              0
0.5            0.5              0
0.75            0.5              0
1            0.5              0
1.25            0.5              0
1.5            0.5              0
1.75            0.5              0
2            0.5              0
0           0.75              0
0.25           0.75              0
0.5           0.75              0
0.75           0.75              0
1           0.75              0
1.25           0.75              0
1.5           0.75              0
1.75           0.75              0
2           0.75              0
0              1              0
0.25              1              0
0.5              1              0
0.75              1              0
1              1              0
1.25              1              0
1.5              1              0
1.75              1              0
2              1              0
0           1.25              0
0.25           1.25              0
0.5           1.25              0
0.75           1.25              0
1           1.25              0
1.25           1.25              0
1.5           1.25              0
1.75           1.25              0
2           1.25              0
0            1.5              0
0.25            1.5              0
0.5            1.5              0
0.75            1.5              0
1            1.5              0
1.25            1.5              0
1.5            1.5              0
1.75            1.5              0
2            1.5              0
0           1.75              0
0.25           1.75              0
0.5           1.75              0
0.75           1.75              0
1           1.75              0
1.25           1.75              0
1.5           1.75              0
1.75           1.75              0
2           1.75              0
0              2              0
0.25              2              0
0.5              2              0
0.75              2              0
1              2              0
1.25              2              0
1.5              2              0
1.75              2              0
2              2              0
0              0              0
0              0              0
0              0              0
0              0              0
0              0              0
0              0              0
0              0              0
0              0              0
0              0              0
0              0              0
0              0              0
0              0              0
0              0              0
0              0              0
0              0              0
0              0              0
0              0              0
0              0              0
0              0              0
0              0              0
0              0              0
0              0              0
0              0              0
0              0              0
0              0              0
0              0              0
0              0              0
0              0              0
0              0              0
0              0              0
0              0              0
0              0              0
0              0              0
0              0              0
0              0              0
0              0              0
0              0              0
0              0              0
0              0              0
0              0              0
0              0              0
0              0              0
0              0              0
0              0              0
0              0              0
0              0              0
0              0              0
0              0              0
0              0              0
0              0              0
0              0              0
0              0              0
0              0              0
0              0              0
0              0              0
0              0              0
0              0              0
0              0              0
0              0              0
0              0              0
0              0              0
0              0              0
0              0              0
0              0              0
0              0              0
0              0              0
0              0              0
0              0              0
0              0              0
0              0              0
0              0              0
0              0              0
0              0              0
0              0              0
0              0              0
0              0              0
0              0              0
0              0              0
0              0              0
0              0              0
0              0              0
0              0              0
0              0              0
0              0              0
0              0              0
0              0              0
0              0              0
0              0              0
0              0              0
0              0              0
0              0              0
0              0              0
0              0              0
0              0              0
0              0              0
0              0              0
0              0              0
0              0              0
0              0              0
0              0              0
0              0              0
0              0              0
0              0              0
0              0              0
0              0              0
0              0              0
0              0              0
0              0              0
0              0              0
0              0              0
0              0              0
0              0              0
0              0              0
0              0              0
0              0              0
0              0              0
0              0              0
0              0              0
0              0              0
0              0              0
0              0              0
0              0              0
0              0              0
0              0              0
0              0              0
0              0              0
0              0              0
0              0              0
0              0              0
0              0              0
0              0              0
0              0              0
0              0              0
0              0              0
0              0              0
0              0              0
0              0              0
0              0              0
0              0              0
0              0              0
0              0              0
0              0              0
0              0              0
0              0              0
0              0              0
0              0              0
0              0              0
0              0              0
0              0              0
0              0              0
0              0              0
0              0              0
0              0              0
0              0              0
0              0              0
0              0              0
0              0              0
0              0              0
0              0              0
0              0              0
0              0              0
0              0              0
0              0              0
0              0              0
0              0              0
0              0              0
0              0              0
0              0              0
0              0              0
0              0              0
0              0              0
0              0              0
0              0              0
0              0              0
0              0              0
0              0              0
0              0              0
0              0              0
0              0              0
0              0              0
0              0              0
0              0              0
0              0              0
0              0              0
0              0              0
0              0              0
0              0              0
0              0              0
0              0              0
0              0              0
0              0              0
0              0              0
0              0              0
0              0              0
0              0              0
0              0              0
0              0              0
0              0              0
0              0              0
0              0              0
0              0              0
0              0              0
0              0              0
0              0              0
0              0              0
0              0              0
0              0              0
0              0              0

CELLS          64         640
4          01       10        9
4          12       11       10
4          23       12       11
4          34       13       12
4          45       14       13
4          56       15       14
4          67       16       15
4          78       17       16
4          910       19       18
4         1011       20       19
4         1112       21       20
4         1213       22       21
4         1314       23       22
4         1415       24       23
4         1516       25       24
4         1617       26       25
4         1819       28       27
4         1920       29       28
4         2021       30       29
4         2122       31       30
4         2223       32       31
4         2324       33       32
4         2425       34       33
4         2526       35       34
4         2728       37       36
4         2829       38       37
4         2930       39       38
4         3031       40       39
4         3132       41       40
4         3233       42       41
4         3334       43       42
4         3435       44       43
4         3637       46       45
4         3738       47       46
4         3839       48       47
4         3940       49       48
4         4041       50       49
4         4142       51       50
4         4243       52       51
4         4344       53       52
4         4546       55       54
4         4647       56       55
4         4748       57       56
4         4849       58       57
4         4950       59       58
4         5051       60       59
4         5152       61       60
4         5253       62       61
4         5455       64       63
4         5556       65       64
4         5657       66       65
4         5758       67       66
4         5859       68       67
4         5960       69       68
4         6061       70       69
4         6162       71       70
4         6364       73       72
4         6465       74       73
4         6566       75       74
4         6667       76       75
4         6768       77       76
4         6869       78       77
4         6970       79       78
4         7071       80       79

CELL_TYPES          64
3435973836
3435973836
3435973836
3435973836
3435973836
3435973836
3435973836
3435973836
3435973836
3435973836
3435973836
3435973836
3435973836
3435973836
3435973836
3435973836
3435973836
3435973836
3435973836
3435973836
3435973836
3435973836
3435973836
3435973836
3435973836
3435973836
3435973836
3435973836
3435973836
3435973836
3435973836
3435973836
3435973836
3435973836
3435973836
3435973836
3435973836
3435973836
3435973836
3435973836
3435973836
3435973836
3435973836
3435973836
3435973836
3435973836
3435973836
3435973836
3435973836
3435973836
3435973836
3435973836
3435973836
3435973836
3435973836
3435973836
3435973836
3435973836
3435973836
3435973836
3435973836
3435973836
3435973836
3435973836

POINT_DATA         289
SCALARS load1_x   double  1
LOOKUP_TABLE load1_x
0
1.41781e-07
2.79007e-07
4.07167e-07
5.21835e-07
6.18705e-07
6.93585e-07
7.42262e-07
7.59891e-07
0
1.46746e-07
2.88874e-07
4.2178e-07
5.40882e-07
6.4162e-07
7.19433e-07
7.69719e-07
7.87791e-07
0
1.50123e-07
2.95534e-07
4.31517e-07
5.53347e-07
6.56298e-07
7.35663e-07
7.86825e-07
8.05402e-07
0
1.52065e-07
2.99344e-07
4.37038e-07
5.60332e-07
6.64414e-07
7.44529e-07
7.96109e-07
8.15023e-07
0
1.52697e-07
3.0058e-07
4.38821e-07
5.62575e-07
6.67002e-07
7.4734e-07
7.99046e-07
8.18076e-07
0
1.52065e-07
2.99344e-07
4.37038e-07
5.60332e-07
6.64414e-07
7.44529e-07
7.96109e-07
8.15023e-07
0
1.50123e-07
2.95534e-07
4.31517e-07
5.53347e-07
6.56298e-07
7.35663e-07
7.86825e-07
8.05402e-07
0
1.46746e-07
2.88874e-07
4.2178e-07
5.40882e-07
6.4162e-07
7.19433e-07
7.69719e-07
7.87791e-07
0
1.41781e-07
2.79007e-07
4.07167e-07
5.21835e-07
6.18705e-07
6.93585e-07
7.42262e-07
7.59891e-07
7.11757e-08
2.11247e-07
3.445e-07
4.66461e-07
5.72762e-07
6.5916e-07
7.21486e-07
7.55339e-07
0
7.25219e-08
1.44471e-07
2.15275e-07
2.84363e-07
3.51169e-07
4.15126e-07
4.75675e-07
5.32259e-07
5.84323e-07
6.31319e-07
6.72694e-07
7.07896e-07
7.36356e-07
7.57491e-07
7.70684e-07
7.75266e-07
7.36617e-08
2.18675e-07
3.56767e-07
4.83342e-07
5.93831e-07
6.83679e-07
7.48309e-07
7.83086e-07
0
7.46032e-08
1.48623e-07
2.21477e-07
2.92582e-07
3.61355e-07
4.27214e-07
4.89577e-07
5.47862e-07
6.01487e-07
6.4987e-07
6.92429e-07
7.28586e-07
7.5776e-07
7.79383e-07
7.92889e-07
7.97724e-07
7.53558e-08
2.23712e-07
3.64999e-07
4.94496e-07
6.07478e-07
6.99221e-07
7.6505e-07
8.00442e-07
0
7.5929e-08
1.51264e-07
2.25411e-07
2.97774e-07
3.67759e-07
4.34768e-07
4.98203e-07
5.57468e-07
6.11964e-07
6.61096e-07
7.04273e-07
7.40914e-07
7.70448e-07
7.9233e-07
8.06035e-07
8.11096e-07
7.63315e-08
2.26602e-07
3.69689e-07
5.00786e-07
6.15074e-07
7.07758e-07
7.74157e-07
8.09877e-07
0
7.65701e-08
1.5254e-07
2.27308e-07
3.00272e-07
3.7083e-07
4.38377e-07
5.02308e-07
5.62018e-07
6.16902e-07
6.66361e-07
7.09801e-07
7.46645e-07
7.76327e-07
7.98321e-07
8.12126e-07
8.17315e-07
7.66492e-08
2.27542e-07
3.71208e-07
5.02811e-07
6.17505e-07
7.10473e-07
7.77039e-07
8.12864e-07
0
7.65701e-08
1.5254e-07
2.27308e-07
3.00272e-07
3.7083e-07
4.38377e-07
5.02308e-07
5.62018e-07
6.16902e-07
6.66361e-07
7.09801e-07
7.46645e-07
7.76327e-07
7.98321e-07
8.12126e-07
8.17315e-07
7.63315e-08
2.26602e-07
3.69689e-07
5.00786e-07
6.15074e-07
7.07758e-07
7.74157e-07
8.09877e-07
0
7.5929e-08
1.51264e-07
2.25411e-07
2.97774e-07
3.67759e-07
4.34768e-07
4.98203e-07
5.57468e-07
6.11964e-07
6.61096e-07
7.04273e-07
7.40914e-07
7.70448e-07
7.9233e-07
8.06035e-07
8.11096e-07
7.53558e-08
2.23712e-07
3.64999e-07
4.94496e-07
6.07478e-07
6.99221e-07
7.6505e-07
8.00442e-07
0
7.46032e-08
1.48623e-07
2.21477e-07
2.92582e-07
3.61355e-07
4.27214e-07
4.89577e-07
5.47862e-07
6.01487e-07
6.4987e-07
6.92429e-07
7.28586e-07
7.5776e-07
7.79383e-07
7.92889e-07
7.97724e-07
7.36617e-08
2.18675e-07
3.56767e-07
4.83342e-07
5.93831e-07
6.83679e-07
7.48309e-07
7.83086e-07
0
7.25219e-08
1.44471e-07
2.15275e-07
2.84363e-07
3.51169e-07
4.15126e-07
4.75675e-07
5.32259e-07
5.84323e-07
6.31319e-07
6.72694e-07
7.07896e-07
7.36356e-07
7.57491e-07
7.70684e-07
7.75266e-07
7.11757e-08
2.11247e-07
3.445e-07
4.66461e-07
5.72762e-07
6.5916e-07
7.21486e-07
7.55339e-07
SCALARS load1_y   double  1
LOOKUP_TABLE load1_y
1.79323e-07
1.76421e-07
1.67727e-07
1.5329e-07
1.33256e-07
1.07968e-07
7.81563e-08
4.52163e-08
1.13829e-08
1.35769e-07
1.33558e-07
1.26931e-07
1.15926e-07
1.00666e-07
8.14675e-08
5.90332e-08
3.47448e-08
1.09872e-08
9.10703e-08
8.95733e-08
8.50875e-08
7.76429e-08
6.73398e-08
5.44398e-08
3.9516e-08
2.36731e-08
8.87885e-09
4.56895e-08
4.4933e-08
4.26666e-08
3.89082e-08
3.37162e-08
2.72401e-08
1.98016e-08
1.20135e-08
4.95387e-09
0
1.54609e-20
2.18135e-20
2.80281e-20
3.50376e-20
4.18819e-20
4.94595e-20
5.67955e-20
6.21339e-20
-4.56895e-08
-4.4933e-08
-4.26666e-08
-3.89082e-08
-3.37162e-08
-2.72401e-08
-1.98016e-08
-1.20135e-08
-4.95387e-09
-9.10703e-08
-8.95733e-08
-8.50875e-08
-7.76429e-08
-6.73398e-08
-5.44398e-08
-3.9516e-08
-2.36731e-08
-8.87885e-09
-1.35769e-07
-1.33558e-07
-1.26931e-07
-1.15926e-07
-1.00666e-07
-8.14675e-08
-5.90332e-08
-3.47448e-08
-1.09872e-08
-1.79323e-07
-1.76421e-07
-1.67727e-07
-1.5329e-07
-1.33256e-07
-1.07968e-07
-7.81563e-08
-4.52163e-08
-1.13829e-08
1.78563e-07
1.72762e-07
1.61187e-07
1.43925e-07
1.21202e-07
9.35258e-08
6.19189e-08
2.82226e-08
1.57716e-07
1.57073e-07
1.55158e-07
1.51958e-07
1.47491e-07
1.41749e-07
1.34758e-07
1.26523e-07
1.1709e-07
1.06493e-07
9.48177e-08
8.21531e-08
6.86611e-08
5.4528e-08
4.00328e-08
2.55058e-08
1.13014e-08
1.35214e-07
1.30793e-07
1.21969e-07
1.08812e-07
9.15243e-08
7.05856e-08
4.69964e-08
2.2598e-08
1.13532e-07
1.13067e-07
1.11675e-07
1.09353e-07
1.06108e-07
1.01941e-07
9.68656e-08
9.08953e-08
8.40614e-08
7.64036e-08
6.79908e-08
5.8914e-08
4.93086e-08
3.9354e-08
2.92884e-08
1.94276e-08
1.01748e-08
9.06956e-08
8.77026e-08
8.17307e-08
7.28368e-08
6.11874e-08
4.71769e-08
3.16119e-08
1.59721e-08
6.84399e-08
6.81572e-08
6.73103e-08
6.58988e-08
6.39259e-08
6.13939e-08
5.83113e-08
5.4689e-08
5.05488e-08
4.59199e-08
4.08503e-08
3.54047e-08
2.96757e-08
2.37879e-08
1.79051e-08
1.22494e-08
7.09586e-09
4.55001e-08
4.39877e-08
4.09714e-08
3.64847e-08
3.06235e-08
2.36113e-08
1.58974e-08
8.30025e-09
2.28633e-08
2.27683e-08
2.2484e-08
2.20101e-08
2.13477e-08
2.04979e-08
1.94639e-08
1.82495e-08
1.68628e-08
1.53145e-08
1.36217e-08
1.1808e-08
9.9062e-09
7.96085e-09
6.03004e-09
4.1919e-09
2.54095e-09
1.22911e-20
1.88796e-20
2.49577e-20
3.12939e-20
3.86525e-20
4.57629e-20
5.27477e-20
5.99585e-20
-2.28633e-08
-2.27683e-08
-2.2484e-08
-2.20101e-08
-2.13477e-08
-2.04979e-08
-1.94639e-08
-1.82495e-08
-1.68628e-08
-1.53145e-08
-1.36217e-08
-1.1808e-08
-9.9062e-09
-7.96085e-09
-6.03004e-09
-4.1919e-09
-2.54095e-09
-4.55001e-08
-4.39877e-08
-4.09714e-08
-3.64847e-08
-3.06235e-08
-2.36113e-08
-1.58974e-08
-8.30025e-09
-6.84399e-08
-6.81572e-08
-6.73103e-08
-6.58988e-08
-6.39259e-08
-6.13939e-08
-5.83113e-08
-5.4689e-08
-5.05488e-08
-4.59199e-08
-4.08503e-08
-3.54047e-08
-2.96757e-08
-2.37879e-08
-1.79051e-08
-1.22494e-08
-7.09586e-09
-9.06956e-08
-8.77026e-08
-8.17307e-08
-7.28368e-08
-6.11874e-08
-4.71769e-08
-3.16119e-08
-1.59721e-08
-1.13532e-07
-1.13067e-07
-1.11675e-07
-1.09353e-07
-1.06108e-07
-1.01941e-07
-9.68656e-08
-9.08953e-08
-8.40614e-08
-7.64036e-08
-6.79908e-08
-5.8914e-08
-4.93086e-08
-3.9354e-08
-2.92884e-08
-1.94276e-08
-1.01748e-08
-1.35214e-07
-1.30793e-07
-1.21969e-07
-1.08812e-07
-9.15243e-08
-7.05856e-08
-4.69964e-08
-2.2598e-08
-1.57716e-07
-1.57073e-07
-1.55158e-07
-1.51958e-07
-1.47491e-07
-1.41749e-07
-1.34758e-07
-1.26523e-07
-1.1709e-07
-1.06493e-07
-9.48177e-08
-8.21531e-08
-6.86611e-08
-5.4528e-08
-4.00328e-08
-2.55058e-08
-1.13014e-08
-1.78563e-07
-1.72762e-07
-1.61187e-07
-1.43925e-07
-1.21202e-07
-9.35258e-08
-6.19189e-08
-2.82226e-08
SCALARS load1_z   double  1
LOOKUP_TABLE load1_z
0
0
0
0
0
0
0
0
0
0
0
0
0
0
0
0
0
0
0
0
0
0
0
0
0
0
0
0
0
0
0
0
0
0
0
0
0
0
0
0
0
0
0
0
0
0
0
0
0
0
0
0
0
0
0
0
0
0
0
0
0
0
0
0
0
0
0
0
0
0
0
0
0
0
0
0
0
0
0
0
0
0
0
0
0
0
0
0
0
0
0
0
0
0
0
0
0
0
0
0
0
0
0
0
0
0
0
0
0
0
0
0
0
0
0
0
0
0
0
0
0
0
0
0
0
0
0
0
0
0
0
0
0
0
0
0
0
0
0
0
0
0
0
0
0
0
0
0
0
0
0
0
0
0
0
0
0
0
0
0
0
0
0
0
0
0
0
0
0
0
0
0
0
0
0
0
0
0
0
0
0
0
0
0
0
0
0
0
0
0
0
0
0
0
0
0
0
0
0
0
0
0
0
0
0
0
0
0
0
0
0
0
0
0
0
0
0
0
0
0
0
0
0
0
0
0
0
0
0
0
0
0
0
0
0
0
0
0
0
0
0
0
0
0
0
0
0
0
0
0
0
0
0
0
0
0
0
0
0
0
0
0
0
0
0
0
0
0
0
0
0
0
0
0
0
0
0
0
0
0
0
0
0
0
0
0
0
0
0
SCALARS load1_theta_1   double  1
LOOKUP_TABLE load1_theta_1
0
0
0
0
0
0
0
0
0
0
0
0
0
0
0
0
0
0
0
0
0
0
0
0
0
0
0
0
0
0
0
0
0
0
0
0
0
0
0
0
0
0
0
0
0
0
0
0
0
0
0
0
0
0
0
0
0
0
0
0
0
0
0
0
0
0
0
0
0
0
0
0
0
0
0
0
0
0
0
0
0
0
0
0
0
0
0
0
0
0
0
0
0
0
0
0
0
0
0
0
0
0
0
0
0
0
0
0
0
0
0
0
0
0
0
0
0
0
0
0
0
0
0
0
0
0
0
0
0
0
0
0
0
0
0
0
0
0
0
0
0
0
0
0
0
0
0
0
0
0
0
0
0
0
0
0
0
0
0
0
0
0
0
0
0
0
0
0
0
0
0
0
0
0
0
0
0
0
0
0
0
0
0
0
0
0
0
0
0
0
0
0
0
0
0
0
0
0
0
0
0
0
0
0
0
0
0
0
0
0
0
0
0
0
0
0
0
0
0
0
0
0
0
0
0
0
0
0
0
0
0
0
0
0
0
0
0
0
0
0
0
0
0
0
0
0
0
0
0
0
0
0
0
0
0
0
0
0
0
0
0
0
0
0
0
0
0
0
0
0
0
0
0
0
0
0
0
0
0
0
0
0
0
0
0
0
0
0
0
SCALARS load1_theta_2   double  1
LOOKUP_TABLE load1_theta_2
0
0
0
0
0
0
0
0
0
0
0
0
0
0
0
0
0
0
0
0
0
0
0
0
0
0
0
0
0
0
0
0
0
0
0
0
0
0
0
0
0
0
0
0
0
0
0
0
0
0
0
0
0
0
0
0
0
0
0
0
0
0
0
0
0
0
0
0
0
0
0
0
0
0
0
0
0
0
0
0
0
0
0
0
0
0
0
0
0
0
0
0
0
0
0
0
0
0
0
0
0
0
0
0
0
0
0
0
0
0
0
0
0
0
0
0
0
0
0
0
0
0
0
0
0
0
0
0
0
0
0
0
0
0
0
0
0
0
0
0
0
0
0
0
0
0
0
0
0
0
0
0
0
0
0
0
0
0
0
0
0
0
0
0
0
0
0
0
0
0
0
0
0
0
0
0
0
0
0
0
0
0
0
0
0
0
0
0
0
0
0
0
0
0
0
0
0
0
0
0
0
0
0
0
0
0
0
0
0
0
0
0
0
0
0
0
0
0
0
0
0
0
0
0
0
0
0
0
0
0
0
0
0
0
0
0
0
0
0
0
0
0
0
0
0
0
0
0
0
0
0
0
0
0
0
0
0
0
0
0
0
0
0
0
0
0
0
0
0
0
0
0
0
0
0
0
0
0
0
0
0
0
0
0
0
0
0
0
0
SCALARS load1_theta_3   double  1
LOOKUP_TABLE load1_theta_3
0
0
0
0
0
0
0
0
0
0
0
0
0
0
0
0
0
0
0
0
0
0
0
0
0
0
0
0
0
0
0
0
0
0
0
0
0
0
0
0
0
0
0
0
0
0
0
0
0
0
0
0
0
0
0
0
0
0
0
0
0
0
0
0
0
0
0
0
0
0
0
0
0
0
0
0
0
0
0
0
0
0
0
0
0
0
0
0
0
0
0
0
0
0
0
0
0
0
0
0
0
0
0
0
0
0
0
0
0
0
0
0
0
0
0
0
0
0
0
0
0
0
0
0
0
0
0
0
0
0
0
0
0
0
0
0
0
0
0
0
0
0
0
0
0
0
0
0
0
0
0
0
0
0
0
0
0
0
0
0
0
0
0
0
0
0
0
0
0
0
0
0
0
0
0
0
0
0
0
0
0
0
0
0
0
0
0
0
0
0
0
0
0
0
0
0
0
0
0
0
0
0
0
0
0
0
0
0
0
0
0
0
0
0
0
0
0
0
0
0
0
0
0
0
0
0
0
0
0
0
0
0
0
0
0
0
0
0
0
0
0
0
0
0
0
0
0
0
0
0
0
0
0
0
0
0
0
0
0
0
0
0
0
0
0
0
0
0
0
0
0
0
0
0
0
0
0
0
0
0
0
0
0
0
0
0
0
0
0

CELL_DATA          64
SCALARS load1_Mises   double  1
LOOKUP_TABLE load1__Mises
17.3469
2.91363e+144
