# vtk DataFile Version 3.0
Cables to test STAP90
ASCII
DATASET UNSTRUCTURED_GRID

POINTS         9   double
0         2.90583e-05                   0
             2.00012         3.82161e-06                   0
                   0             1.99997                   0
             2.00012                   2                   0
             1.00008           1.878e-05                   0
             2.00012                   1                   0
             1.00008             1.99998                   0
                   0                   1                   0
             1.00008                   1                   0

               CELLS           1          10
4          01        3        2

CELL_TYPES           1
3435973836

POINT_DATA           9
SCALARS load1_x   double  1
LOOKUP_TABLE load1_x
0
7.67313e-07
0
7.67313e-07
5.2287e-07
8.16343e-07
5.2287e-07
0
5.62243e-07
SCALARS load1_y   double  1
LOOKUP_TABLE load1_y
1.93722e-07
2.54774e-08
-1.93722e-07
-2.54774e-08
1.252e-07
-3.17637e-22
-1.252e-07
0
-3.83362e-23
SCALARS load1_z   double  1
LOOKUP_TABLE load1_z
0
0
0
0
0
0
0
0
0
SCALARS load1_theta_1   double  1
LOOKUP_TABLE load1_theta_1
0
0
0
0
0
0
0
0
0
SCALARS load1_theta_2   double  1
LOOKUP_TABLE load1_theta_2
0
0
0
0
0
0
0
0
0
SCALARS load1_theta_3   double  1
LOOKUP_TABLE load1_theta_3
0
0
0
0
0
0
0
0
0

CELL_DATA           1
SCALARS load1_Mises   double  1
LOOKUP_TABLE load1__Mises
17.059
