# vtk DataFile Version 3.0
Cables to test STAP90
ASCII
DATASET UNSTRUCTURED_GRID

POINTS        81   double
0         2.69242e-05                   0
            0.500042         2.51842e-05                   0
             1.00008         2.00111e-05                   0
              1.5001         1.17433e-05                   0
             2.00011         1.75435e-06                   0
                   0            0.500014                   0
            0.500044            0.500013                   0
             1.00008             0.50001                   0
             1.50011            0.500006                   0
             2.00012            0.500001                   0
                   0                   1                   0
            0.500045                   1                   0
             1.00008                   1                   0
             1.50011                   1                   0
             2.00012                   1                   0
                   0             1.49999                   0
            0.500044             1.49999                   0
             1.00008             1.49999                   0
             1.50011             1.49999                   0
             2.00012                 1.5                   0
                   0             1.99997                   0
            0.500042             1.99997                   0
             1.00008             1.99998                   0
              1.5001             1.99999                   0
             2.00011                   2                   0
            0.250021         2.64475e-05                   0
            0.750061         2.29765e-05                   0
             1.25009         1.61737e-05                   0
             1.75011          6.7634e-06                   0
                   0             0.25002                   0
            0.250022             0.25002                   0
            0.500043            0.250019                   0
            0.750063            0.250017                   0
             1.00008            0.250015                   0
              1.2501            0.250012                   0
             1.50011            0.250009                   0
             1.75012            0.250005                   0
             2.00012            0.250002                   0
            0.250023            0.500013                   0
            0.750065            0.500012                   0
              1.2501            0.500008                   0
             1.75012            0.500004                   0
                   0            0.750007                   0
            0.250023            0.750007                   0
            0.500045            0.750006                   0
            0.750066            0.750006                   0
             1.00008            0.750005                   0
              1.2501            0.750004                   0
             1.50011            0.750003                   0
             1.75012            0.750002                   0
             2.00012            0.750001                   0
            0.250023                   1                   0
            0.750066                   1                   0
              1.2501                   1                   0
             1.75012                   1                   0
                   0             1.24999                   0
            0.250023             1.24999                   0
            0.500045             1.24999                   0
            0.750066             1.24999                   0
             1.00008             1.24999                   0
              1.2501                1.25                   0
             1.50011                1.25                   0
             1.75012                1.25                   0
             2.00012                1.25                   0
            0.250023             1.49999                   0
            0.750065             1.49999                   0
              1.2501             1.49999                   0
             1.75012                 1.5                   0
                   0             1.74998                   0
            0.250022             1.74998                   0
            0.500043             1.74998                   0
            0.750063             1.74998                   0
             1.00008             1.74998                   0
              1.2501             1.74999                   0
             1.50011             1.74999                   0
             1.75012             1.74999                   0
             2.00012                1.75                   0
            0.250021             1.99997                   0
            0.750061             1.99998                   0
             1.25009             1.99998                   0
             1.75011             1.99999                   0

               CELLS          16         160
4          01        6        5
4          12        7        6
4          23        8        7
4          34        9        8
4          56       11       10
4          67       12       11
4          78       13       12
4          89       14       13
4         1011       16       15
4         1112       17       16
4         1213       18       17
4         1314       19       18
4         1516       21       20
4         1617       22       21
4         1718       23       22
4         1819       24       23

CELL_TYPES          16
3435973836
3435973836
3435973836
3435973836
3435973836
3435973836
3435973836
3435973836
3435973836
3435973836
3435973836
3435973836
3435973836
3435973836
3435973836
3435973836

POINT_DATA          81
SCALARS load1_x   double  1
LOOKUP_TABLE load1_x
0
2.78992e-07
5.21802e-07
6.93562e-07
7.59951e-07
0
2.95538e-07
5.53354e-07
7.35654e-07
8.05428e-07
0
3.0059e-07
5.62588e-07
7.47344e-07
8.18105e-07
0
2.95538e-07
5.53354e-07
7.35654e-07
8.05428e-07
0
2.78992e-07
5.21802e-07
6.93562e-07
7.59951e-07
1.41775e-07
4.07151e-07
6.18711e-07
7.42397e-07
0
1.46744e-07
2.88872e-07
4.21776e-07
5.4088e-07
6.41613e-07
7.19435e-07
7.69698e-07
7.87737e-07
1.50125e-07
4.31523e-07
6.56301e-07
7.86803e-07
0
1.52068e-07
2.9935e-07
4.37046e-07
5.60345e-07
6.64419e-07
7.44548e-07
7.96101e-07
8.15035e-07
1.52702e-07
4.38833e-07
6.67004e-07
7.99014e-07
0
1.52068e-07
2.9935e-07
4.37046e-07
5.60345e-07
6.64419e-07
7.44548e-07
7.96101e-07
8.15035e-07
1.50125e-07
4.31523e-07
6.56301e-07
7.86803e-07
0
1.46744e-07
2.88872e-07
4.21776e-07
5.4088e-07
6.41613e-07
7.19435e-07
7.69698e-07
7.87737e-07
1.41775e-07
4.07151e-07
6.18711e-07
7.42397e-07
SCALARS load1_y   double  1
LOOKUP_TABLE load1_y
1.79495e-07
1.67894e-07
1.33407e-07
7.82888e-08
1.16957e-08
9.10907e-08
8.51063e-08
6.73488e-08
3.9518e-08
8.89925e-09
0
3.17089e-21
4.288e-21
4.92162e-21
4.01255e-21
-9.10907e-08
-8.51063e-08
-6.73488e-08
-3.9518e-08
-8.89925e-09
-1.79495e-07
-1.67894e-07
-1.33407e-07
-7.82888e-08
-1.16957e-08
1.76316e-07
1.53177e-07
1.07824e-07
4.50894e-08
1.358e-07
1.33562e-07
1.26963e-07
1.15927e-07
1.00694e-07
8.145e-08
5.90289e-08
3.47322e-08
1.09265e-08
8.95747e-08
7.76355e-08
5.44159e-08
2.36655e-08
4.56993e-08
4.49385e-08
4.2676e-08
3.89105e-08
3.37203e-08
2.72366e-08
1.97973e-08
1.20139e-08
4.91943e-09
2.39221e-21
3.94731e-21
4.45354e-21
4.83991e-21
-4.56993e-08
-4.49385e-08
-4.2676e-08
-3.89105e-08
-3.37203e-08
-2.72366e-08
-1.97973e-08
-1.20139e-08
-4.91943e-09
-8.95747e-08
-7.76355e-08
-5.44159e-08
-2.36655e-08
-1.358e-07
-1.33562e-07
-1.26963e-07
-1.15927e-07
-1.00694e-07
-8.145e-08
-5.90289e-08
-3.47322e-08
-1.09265e-08
-1.76316e-07
-1.53177e-07
-1.07824e-07
-4.50894e-08
SCALARS load1_z   double  1
LOOKUP_TABLE load1_z
0
0
0
0
0
0
0
0
0
0
0
0
0
0
0
0
0
0
0
0
0
0
0
0
0
0
0
0
0
0
0
0
0
0
0
0
0
0
0
0
0
0
0
0
0
0
0
0
0
0
0
0
0
0
0
0
0
0
0
0
0
0
0
0
0
0
0
0
0
0
0
0
0
0
0
0
0
0
0
0
0
SCALARS load1_theta_1   double  1
LOOKUP_TABLE load1_theta_1
0
0
0
0
0
0
0
0
0
0
0
0
0
0
0
0
0
0
0
0
0
0
0
0
0
0
0
0
0
0
0
0
0
0
0
0
0
0
0
0
0
0
0
0
0
0
0
0
0
0
0
0
0
0
0
0
0
0
0
0
0
0
0
0
0
0
0
0
0
0
0
0
0
0
0
0
0
0
0
0
0
SCALARS load1_theta_2   double  1
LOOKUP_TABLE load1_theta_2
0
0
0
0
0
0
0
0
0
0
0
0
0
0
0
0
0
0
0
0
0
0
0
0
0
0
0
0
0
0
0
0
0
0
0
0
0
0
0
0
0
0
0
0
0
0
0
0
0
0
0
0
0
0
0
0
0
0
0
0
0
0
0
0
0
0
0
0
0
0
0
0
0
0
0
0
0
0
0
0
0
SCALARS load1_theta_3   double  1
LOOKUP_TABLE load1_theta_3
0
0
0
0
0
0
0
0
0
0
0
0
0
0
0
0
0
0
0
0
0
0
0
0
0
0
0
0
0
0
0
0
0
0
0
0
0
0
0
0
0
0
0
0
0
0
0
0
0
0
0
0
0
0
0
0
0
0
0
0
0
0
0
0
0
0
0
0
0
0
0
0
0
0
0
0
0
0
0
0
0

CELL_DATA          16
SCALARS load1_Mises   double  1
LOOKUP_TABLE load1__Mises
17.5126
2.91363e+144
