# vtk DataFile Version 3.0
Cables to test STAP90
ASCII
DATASET UNSTRUCTURED_GRID

POINTS        25   double
0         2.71377e-05                   0
             1.00008         2.02077e-05                   0
             2.00011         2.03877e-06                   0
                   0                   1                   0
             1.00008                   1                   0
             2.00012                   1                   0
                   0             1.99997                   0
             1.00008             1.99998                   0
             2.00011                   2                   0
            0.500042         2.50496e-05                   0
              1.5001         1.15525e-05                   0
                   0            0.500014                   0
            0.500044            0.500013                   0
             1.00008             0.50001                   0
             1.50011            0.500006                   0
             2.00012            0.500001                   0
            0.500045                   1                   0
             1.50011                   1                   0
                   0             1.49999                   0
            0.500044             1.49999                   0
             1.00008             1.49999                   0
             1.50011             1.49999                   0
             2.00012                 1.5                   0
            0.500042             1.99997                   0
              1.5001             1.99999                   0

               CELLS           4          40
4          01        4        3
4          12        5        4
4          34        7        6
4          45        8        7

CELL_TYPES           4
3435973836
3435973836
3435973836
3435973836

POINT_DATA          25
SCALARS load1_x   double  1
LOOKUP_TABLE load1_x
0
5.21575e-07
7.60591e-07
0
5.62695e-07
8.18364e-07
0
5.21575e-07
7.60591e-07
2.78882e-07
6.94193e-07
0
2.95555e-07
5.53454e-07
7.35536e-07
8.05261e-07
3.00713e-07
7.47085e-07
0
2.95555e-07
5.53454e-07
7.35536e-07
8.05261e-07
2.78882e-07
6.94193e-07
SCALARS load1_y   double  1
LOOKUP_TABLE load1_y
1.80918e-07
1.34718e-07
1.35918e-08
0
9.15069e-22
1.25235e-21
-1.80918e-07
-1.34718e-07
-1.35918e-08
1.66997e-07
7.70166e-08
9.13834e-08
8.51463e-08
6.75593e-08
3.9366e-08
8.44749e-09
6.71671e-22
1.16115e-21
-9.13834e-08
-8.51463e-08
-6.75593e-08
-3.9366e-08
-8.44749e-09
-1.66997e-07
-7.70166e-08
SCALARS load1_z   double  1
LOOKUP_TABLE load1_z
0
0
0
0
0
0
0
0
0
0
0
0
0
0
0
0
0
0
0
0
0
0
0
0
0
SCALARS load1_theta_1   double  1
LOOKUP_TABLE load1_theta_1
0
0
0
0
0
0
0
0
0
0
0
0
0
0
0
0
0
0
0
0
0
0
0
0
0
SCALARS load1_theta_2   double  1
LOOKUP_TABLE load1_theta_2
0
0
0
0
0
0
0
0
0
0
0
0
0
0
0
0
0
0
0
0
0
0
0
0
0
SCALARS load1_theta_3   double  1
LOOKUP_TABLE load1_theta_3
0
0
0
0
0
0
0
0
0
0
0
0
0
0
0
0
0
0
0
0
0
0
0
0
0

CELL_DATA           4
SCALARS load1_Mises   double  1
LOOKUP_TABLE load1__Mises
17.6323
2.81604e+144
