TITLE : 4q test
        (7:43:24 on May 2, 2019, Thursday)

C O N T R O L   I N F O R M A T I O N

      NUMBER OF NODAL POINTS . . . . . . . . . . (NUMNP)  =     4
      NUMBER OF ELEMENT GROUPS . . . . . . . . . (NUMEG)  =     1
      NUMBER OF LOAD CASES . . . . . . . . . . . (NLCASE) =     1
      SOLUTION MODE  . . . . . . . . . . . . . . (MODEX)  =     1
         EQ.0, DATA CHECK
         EQ.1, EXECUTION

 N O D A L   P O I N T   D A T A

    NODE       BOUNDARY                         NODAL POINT
   NUMBER  CONDITION  CODES                     COORDINATES
        1    1    1    1      0.00000e+000   1.00000e+000   0.00000e+000
        2    1    1    1      0.00000e+000   0.00000e+000   0.00000e+000
        3    0    0    1      2.00000e+000   5.00000e-001   0.00000e+000
        4    0    0    1      2.00000e+000   1.00000e+000   0.00000e+000

 L O A D   C A S E   D A T A

     LOAD CASE NUMBER . . . . . . . =     1
     NUMBER OF CONCENTRATED LOADS . =     2

    NODE       DIRECTION      LOAD
   NUMBER                   MAGNITUDE
      2            2      -2.00000e+001
      4            2      -2.00000e+001

 E L E M E N T   G R O U P   D A T A


 E L E M E N T   D E F I N I T I O N

 ELEMENT TYPE  . . . . . . . . . . . . .( NPAR(1) ) . . =    2
     EQ.1, TRUSS ELEMENTS
     EQ.2, ELEMENTS CURRENTLY
     EQ.3, NOT AVAILABLE

 NUMBER OF ELEMENTS. . . . . . . . . . .( NPAR(2) ) . . =    1

 M A T E R I A L   D E F I N I T I O N

 NUMBER OF DIFFERENT SETS OF MATERIAL
 AND CROSS-SECTIONAL  CONSTANTS  . . . .( NPAR(3) ) . . =    1

  SET       YOUNG'S        POISSON 
 NUMBER     MODULUS         RATIO
               E              Nu 
    1    3.00000e+007    3.00000e-001


 E L E M E N T   I N F O R M A T I O N
 ELEMENT     NODE     NODE     NODE     NODE       MATERIAL
 NUMBER-N      I       II      III       IV       SET NUMBER
    1          1        2        3        4           1

 EQUATION NUMBERS

   NODE NUMBER   DEGREES OF FREEDOM
        N           X    Y    Z
        1           0    0    0
        2           0    0    0
        3           1    2    0
        4           3    4    0

	TOTAL SYSTEM DATA

     NUMBER OF EQUATIONS . . . . . . . . . . . . . .(NEQ) = 4
     NUMBER OF MATRIX ELEMENTS . . . . . . . . . . .(NWK) = 10
     MAXIMUM HALF BANDWIDTH  . . . . . . . . . . . .(MK ) = 4
     MEAN HALF BANDWIDTH . . . . . . . . . . . . . .(MM ) = 2


 LOAD CASE    1


 D I S P L A C E M E N T S

  NODE           X-DISPLACEMENT    Y-DISPLACEMENT    Z-DISPLACEMENT
    1              0.00000e+000      0.00000e+000      0.00000e+000
    2              0.00000e+000      0.00000e+000      0.00000e+000
    3             -1.17777e-006     -9.66973e-006      0.00000e+000
    4              2.67426e-006     -9.93532e-006      0.00000e+000

 S T R E S S  C A L C U L A T I O N S  F O R  E L E M E N T  G R O U P    1

  ELEMENT         X_coord         Y_coord         STRESS_XX         STRESS_YY         STRESS_XY
  NUMBER
    1      4.22650e-001      8.11004e-001      2.84571e+001      6.65442e+000     -4.64547e+001
    1      1.57735e+000      8.72008e-001      1.85063e+001     -4.82341e+000      1.09231e+000
    1      4.22650e-001      2.94658e-001     -1.25328e+001     -5.64256e+000     -4.54656e+001
    1      1.57735e+000      5.22329e-001     -4.20205e+001     -2.29815e+001      2.55293e+000


 S O L U T I O N   T I M E   L O G   I N   S E C 

     TIME FOR INPUT PHASE = 2.69000e-001
     TIME FOR CALCULATION OF STIFFNESS MATRIX = 5.30000e-002
     TIME FOR FACTORIZATION AND LOAD CASE SOLUTIONS = 6.60000e-002

     T O T A L   S O L U T I O N   T I M E = 4.67000e-001
