TITLE : 8h test
        (15:21:37 on May 7, 2019, Tuesday)

C O N T R O L   I N F O R M A T I O N

      NUMBER OF NODAL POINTS . . . . . . . . . . (NUMNP)  =     8
      NUMBER OF ELEMENT GROUPS . . . . . . . . . (NUMEG)  =     1
      NUMBER OF LOAD CASES . . . . . . . . . . . (NLCASE) =     1
      SOLUTION MODE  . . . . . . . . . . . . . . (MODEX)  =     1
         EQ.0, DATA CHECK
         EQ.1, EXECUTION

 N O D A L   P O I N T   D A T A

    NODE       BOUNDARY                         NODAL POINT
   NUMBER  CONDITION  CODES                     COORDINATES
        1    0    0    0      0.00000e+000   0.00000e+000   0.00000e+000
        2    0    0    0      1.00000e+000   0.00000e+000   0.00000e+000
        3    0    0    0      1.00000e+000   1.00000e+000   0.00000e+000
        4    0    0    0      0.00000e+000   1.00000e+000   0.00000e+000
        5    1    1    1      0.00000e+000   0.00000e+000   1.00000e+000
        6    0    1    1      1.00000e+000   0.00000e+000   1.00000e+000
        7    0    0    1      1.00000e+000   1.00000e+000   1.00000e+000
        8    1    0    1      0.00000e+000   1.00000e+000   1.00000e+000

 EQUATION NUMBERS

   NODE NUMBER   DEGREES OF FREEDOM
        N           X    Y    Z
        1           1    2    3    0    0    0
        2           4    5    6    0    0    0
        3           7    8    9    0    0    0
        4          10   11   12    0    0    0
        5           0    0    0    0    0    0
        6          13    0    0    0    0    0
        7          14   15    0    0    0    0
        8           0   16    0    0    0    0

 L O A D   C A S E   D A T A

     LOAD CASE NUMBER . . . . . . . =     1
     NUMBER OF CONCENTRATED LOADS . =     4

    NODE       DIRECTION      LOAD
   NUMBER                   MAGNITUDE
      1            3      -0.00000e+000
      2            3      -0.00000e+000
      3            3      -0.00000e+000
      4            3      -0.00000e+000

 E L E M E N T   G R O U P   D A T A


 E L E M E N T   D E F I N I T I O N

 ELEMENT TYPE  . . . . . . . . . . . . .( NPAR(1) ) . . =    4
     EQ.1, TRUSS ELEMENTS
     EQ.2, ELEMENTS CURRENTLY
     EQ.3, NOT AVAILABLE

 NUMBER OF ELEMENTS. . . . . . . . . . .( NPAR(2) ) . . =    1

 M A T E R I A L   D E F I N I T I O N

 NUMBER OF DIFFERENT SETS OF MATERIAL
 AND CROSS-SECTIONAL  CONSTANTS  . . . .( NPAR(3) ) . . =    1

  SET       YOUNG'S        POISSON       RIGIDITY        LAME'S
 NUMBER     MODULUS         RATIO         MODULUS      COEFFICIENT      Density
               E              Nu            G             Lam             Rou
    1    1.00000e+007    3.00000e-001    3.84615e+006    5.76923e+006    1.00000e+003


 E L E M E N T   I N F O R M A T I O N
 ELEMENT     NODE     NODE     NODE     NODE     NODE     NODE     NODE     NODE       MATERIAL
 NUMBER-N      I       II      III       IV        V       VI       VII      VIII     SET NUMBER
    1          1        2        3        4        5        6        7        8           1

	TOTAL SYSTEM DATA

     NUMBER OF EQUATIONS . . . . . . . . . . . . . .(NEQ) = 16
     NUMBER OF MATRIX ELEMENTS . . . . . . . . . . .(NWK) = 136
     MAXIMUM HALF BANDWIDTH  . . . . . . . . . . . .(MK ) = 16
     MEAN HALF BANDWIDTH . . . . . . . . . . . . . .(MM ) = 8


 LOAD CASE    1


 D I S P L A C E M E N T S

  NODE           X-DISPLACEMENT    Y-DISPLACEMENT    Z-DISPLACEMENT
    1             -1.09036e-019      8.13152e-020     -4.90000e-004      0.00000e+000      0.00000e+000      0.00000e+000
    2             -1.47000e-004      4.06576e-020     -4.90000e-004      0.00000e+000      0.00000e+000      0.00000e+000
    3             -1.47000e-004     -1.47000e-004     -4.90000e-004      0.00000e+000      0.00000e+000      0.00000e+000
    4             -8.13152e-020     -1.47000e-004     -4.90000e-004      0.00000e+000      0.00000e+000      0.00000e+000
    5              0.00000e+000      0.00000e+000      0.00000e+000      0.00000e+000      0.00000e+000      0.00000e+000
    6             -1.47000e-004      0.00000e+000      0.00000e+000      0.00000e+000      0.00000e+000      0.00000e+000
    7             -1.47000e-004     -1.47000e-004      0.00000e+000      0.00000e+000      0.00000e+000      0.00000e+000
    8              0.00000e+000     -1.47000e-004      0.00000e+000      0.00000e+000      0.00000e+000      0.00000e+000

 S T R E S S  C A L C U L A T I O N S  F O R  E L E M E N T  G R O U P    1

  ELEMENT         X_coord         Y_coord         Z_coord         STRESS_XX         STRESS_YY         STRESS_ZZ         STRESS_YZ         STRESS_ZX         STRESS_XY
  NUMBER
    1      2.11325e-001      2.11325e-001      2.11325e-001     -9.09495e-013     -4.54747e-013      4.90000e+003      2.73657e-013     -4.36548e-013     -5.21251e-014
    1      7.88675e-001      2.11325e-001      2.11325e-001     -4.54747e-013      0.00000e+000      4.90000e+003      6.25501e-013     -2.34563e-013      2.47594e-013
    1      7.88675e-001      7.88675e-001      2.11325e-001     -4.54747e-013     -4.54747e-013      4.90000e+003      6.77626e-013     -3.64876e-013      5.21251e-014
    1      2.11325e-001      7.88675e-001      2.11325e-001     -9.09495e-013     -9.09495e-013      4.90000e+003      4.17001e-013     -3.38813e-013     -2.60626e-013
    1      2.11325e-001      2.11325e-001      7.88675e-001     -4.54747e-013     -4.54747e-013      4.90000e+003     -1.43344e-013      2.93204e-013      3.90938e-014
    1      7.88675e-001      2.11325e-001      7.88675e-001      4.54747e-013      4.54747e-013      4.90000e+003     -1.10766e-013      4.95188e-013      5.21251e-014
    1      7.88675e-001      7.88675e-001      7.88675e-001      4.54747e-013      4.54747e-013      4.90000e+003      2.08500e-013      1.04250e-013      1.56375e-013
    1      2.11325e-001      7.88675e-001      7.88675e-001     -9.09495e-013     -9.09495e-013      4.90000e+003     -2.08500e-013      7.81877e-014      1.04250e-013


 S O L U T I O N   T I M E   L O G   I N   S E C 

     TIME FOR INPUT PHASE = 5.50000e-001
     TIME FOR CALCULATION OF STIFFNESS MATRIX = 4.90000e-002
     TIME FOR FACTORIZATION AND LOAD CASE SOLUTIONS = 1.71000e-001

     T O T A L   S O L U T I O N   T I M E = 1.02900e+000
