TITLE : 3t test
        (18:39:6 on May 11, 2019, Saturday)

C O N T R O L   I N F O R M A T I O N

      NUMBER OF NODAL POINTS . . . . . . . . . . (NUMNP)  =     4
      NUMBER OF ELEMENT GROUPS . . . . . . . . . (NUMEG)  =     1
      NUMBER OF LOAD CASES . . . . . . . . . . . (NLCASE) =     1
      SOLUTION MODE  . . . . . . . . . . . . . . (MODEX)  =     1
         EQ.0, DATA CHECK
         EQ.1, EXECUTION

 N O D A L   P O I N T   D A T A

    NODE       BOUNDARY                         NODAL POINT
   NUMBER  CONDITION  CODES                     COORDINATES
        1    1    1    1      0.00000e+000   1.00000e+000   0.00000e+000
        2    1    0    1      0.00000e+000   0.00000e+000   0.00000e+000
        3    0    0    1      1.00000e+000   0.00000e+000   0.00000e+000
        4    0    0    1      1.00000e+000   1.00000e+000   0.00000e+000

 EQUATION NUMBERS

   NODE NUMBER   DEGREES OF FREEDOM
        N           X    Y    Z
        1           0    0    0    0    0    0
        2           0    1    0    0    0    0
        3           2    3    0    0    0    0
        4           4    5    0    0    0    0

 L O A D   C A S E   D A T A

     LOAD CASE NUMBER . . . . . . . =     1
     NUMBER OF CONCENTRATED LOADS . =     2

    NODE       DIRECTION      LOAD
   NUMBER                   MAGNITUDE
      3            1       5.00000e+001
      4            1       5.00000e+001

 E L E M E N T   G R O U P   D A T A


 E L E M E N T   D E F I N I T I O N

 ELEMENT TYPE  . . . . . . . . . . . . .( NPAR(1) ) . . =    3
     EQ.1, TRUSS ELEMENTS
     EQ.2, ELEMENTS CURRENTLY
     EQ.3, NOT AVAILABLE

 NUMBER OF ELEMENTS. . . . . . . . . . .( NPAR(2) ) . . =    2

 M A T E R I A L   D E F I N I T I O N

 NUMBER OF DIFFERENT SETS OF MATERIAL
 AND CROSS-SECTIONAL  CONSTANTS  . . . .( NPAR(3) ) . . =    1

  SET       YOUNG'S        POISSON 
 NUMBER     MODULUS         RATIO            Density         Thickness
               E              Nu               Rou               t 
    1    1.00000e+007    3.00000e-001    0.00000e+000    1.00000e+000


 E L E M E N T   I N F O R M A T I O N
 ELEMENT     NODE     NODE     NODE       MATERIAL
 NUMBER-N      I       II      III       SET NUMBER
    1          1        2        3           1
    2          1        3        4           1

	TOTAL SYSTEM DATA

     NUMBER OF EQUATIONS . . . . . . . . . . . . . .(NEQ) = 5
     NUMBER OF MATRIX ELEMENTS . . . . . . . . . . .(NWK) = 13
     MAXIMUM HALF BANDWIDTH  . . . . . . . . . . . .(MK ) = 4
     MEAN HALF BANDWIDTH . . . . . . . . . . . . . .(MM ) = 2


 LOAD CASE    1


 D I S P L A C E M E N T S

  NODE           X-DISPLACEMENT    Y-DISPLACEMENT    Z-DISPLACEMENT
    1              0.00000e+000      0.00000e+000      0.00000e+000      0.00000e+000      0.00000e+000      0.00000e+000
    2              0.00000e+000      3.00000e-006      0.00000e+000      0.00000e+000      0.00000e+000      0.00000e+000
    3              1.00000e-005      3.00000e-006      0.00000e+000      0.00000e+000      0.00000e+000      0.00000e+000
    4              1.00000e-005      0.00000e+000      0.00000e+000      0.00000e+000      0.00000e+000      0.00000e+000

 S T R E S S  C A L C U L A T I O N S  F O R  E L E M E N T  G R O U P    1

  ELEMENT         STRESS_XX         STRESS_YY         STRESS_XY
  NUMBER
    1      1.00000e+002      0.00000e+000     -1.62891e-015
    2      1.00000e+002      7.10543e-015      0.00000e+000


 S O L U T I O N   T I M E   L O G   I N   S E C 

     TIME FOR INPUT PHASE = 1.47000e-001
     TIME FOR CALCULATION OF STIFFNESS MATRIX = 1.90000e-002
     TIME FOR FACTORIZATION AND LOAD CASE SOLUTIONS = 6.20000e-002

     T O T A L   S O L U T I O N   T I M E = 2.28000e-001
